16
Lattice="6.5 0.0 0.0 0.0 6.5 0.0 0.0 0.0 6.5" Properties=species:S:1:pos:R:3:forces:R:3 group=Ti_rattle05_b0 composition=Ti energy=-124.74266052246094 pbc="T T T"
Ti      -0.05808364      -0.05680738      -0.05359635       0.03534721       0.11530693       0.06693301
Ti       1.63081653       1.60004994       1.54884739      -0.04475737       0.02891832       0.06829077
Ti      -0.14784710       0.01103429       3.22192911       0.22166109      -0.01691106       0.04240337
Ti       1.65971741       1.66971119       4.86111948      -0.09663170      -0.08000040       0.00249503
Ti      -0.07491977       3.20208077       0.01905525       0.00539885       0.01836091      -0.02099001
Ti       1.56768228       4.86408546       1.56236677      -0.03934013       0.01085464       0.09696588
Ti      -0.01220099       3.20873115       3.27998735       0.02317940      -0.02924394      -0.07760221
Ti       1.56636970       4.83014967       4.88905029       0.02490411       0.09006795      -0.02216573
Ti       3.18086451       0.06785485       0.04936175       0.04365467      -0.13055623      -0.08603102
Ti       4.80191170       1.59859695       1.66674121       0.03746733       0.06265342      -0.06640141
Ti       3.22879921       0.00825947       3.18845081      -0.05172903      -0.05532952       0.07641532
Ti       4.86551484       1.61037076       4.84979290      -0.08141590       0.00173596       0.04541008
Ti       3.23677723       3.29301640      -0.04649948       0.09156395      -0.05026835       0.07563671
Ti       4.88734825       4.87939138       1.72750824      -0.04853628      -0.03227183      -0.12144547
Ti       3.23205059       3.27270558       3.27276780      -0.05775563       0.04416453      -0.01857252
Ti       4.87798800       4.88427890       4.90870233      -0.06301062       0.02251872      -0.06134179
16
Lattice="6.5 0.0 0.0 0.0 6.5 0.0 0.0 0.0 6.5" Properties=species:S:1:pos:R:3:forces:R:3 group=Ti_rattle05_b0 composition=Ti energy=-124.73027038574219 pbc="T T T"
Ti       0.01202541       0.06822819       0.03458079      -0.02797398      -0.07897298      -0.07658243
Ti       1.63030562       1.64588040       1.71719306      -0.01797616      -0.02968664      -0.10388024
Ti       0.01152141      -0.05702019       3.24554695      -0.03065441       0.01193435       0.02392569
Ti       1.57781813       1.60113242       4.85103733       0.04467653       0.01210981       0.05127276
Ti      -0.01372929       3.34160149       0.03003549       0.04539503      -0.21572818      -0.00946409
Ti       1.62918020       4.85646332       1.61449012      -0.00636691       0.05974684       0.06314084
Ti      -0.04582867       3.21864099       3.23337096       0.02454728       0.05422270       0.07900707
Ti       1.58802115       4.77946390       4.91762800       0.04672109       0.19112776      -0.04096610
Ti       3.32432863       0.00722102       0.04051318      -0.10027597       0.02388684      -0.00261282
Ti       4.89702017       1.68139834       1.65122032      -0.02894836       0.01244554      -0.03303944
Ti       3.29770060       0.03801876       3.18934412      -0.01053400      -0.16116919       0.07345955
Ti       4.83301331       1.61647463       4.83355097       0.04370388       0.03462565       0.10333945
Ti       3.13218476       3.30905774       0.04592788       0.10945079      -0.11439417      -0.04950228
Ti       4.97466369       4.78982861       1.59438701      -0.12092267       0.07880408       0.01879473
Ti       3.22657812       3.22755299       3.28399902       0.01485314       0.02948637      -0.04274803
Ti       4.84576936       4.82052000       4.92503223       0.01430481       0.09156127      -0.05414468
16
Lattice="6.5 0.0 0.0 0.0 6.5 0.0 0.0 0.0 6.5" Properties=species:S:1:pos:R:3:forces:R:3 group=Ti_rattle05_b0 composition=Ti energy=-124.72716522216797 pbc="T T T"
Ti      -0.05398848       0.04274226      -0.04152320       0.12807791      -0.08032827       0.04111100
Ti       1.72278577       1.56465285       1.72179505      -0.13494821       0.03275544      -0.03680822
Ti      -0.01530060      -0.10942409       3.19835887       0.05085362       0.13800471       0.04061405
Ti       1.57763962       1.72784071       4.88128853       0.06501850      -0.15086085      -0.05277653
Ti      -0.07615332       3.22689536       0.06750392       0.08661799      -0.06819704      -0.01340633
Ti       1.63609170       4.80055547       1.56054841       0.04185958       0.10911123       0.07017720
Ti      -0.00749351       3.23599411       3.28602161      -0.01824125       0.01779743      -0.13668828
Ti       1.58481043       4.80781055       4.87517983       0.05220994       0.06914888       0.09954217
Ti       3.28664245       0.01093492      -0.03472876      -0.09437140       0.00307443      -0.06551445
Ti       4.89342748       1.57538673       1.57962231      -0.04281884       0.03172719       0.12207299
Ti       3.36402137       0.02922879       3.25891604      -0.13472086      -0.12304914       0.06754197
Ti       4.87721605       1.63933845       4.87471912       0.05706170       0.00227512       0.02958223
Ti       3.21809938       3.18175298       0.08532390       0.05954436       0.07508140      -0.11978400
Ti       4.86804890       4.85664823       1.60124864       0.00455645      -0.00325807      -0.01297946
Ti       3.31165367       3.27485712       3.33131330      -0.03418238      -0.04525190      -0.09978326
Ti       4.93217529       4.86720523       4.85038734      -0.08651711      -0.00803057       0.06709889
16
Lattice="6.5 0.0 0.0 0.0 6.5 0.0 0.0 0.0 6.5" Properties=species:S:1:pos:R:3:forces:R:3 group=Ti_rattle05_b0 composition=Ti energy=-124.7284927368164 pbc="T T T"
Ti       0.00276818      -0.07671280      -0.03490288       0.02636468       0.05473525       0.00136164
Ti       1.60341881       1.62108515       1.61558146      -0.04577108       0.00775200      -0.04896072
Ti       0.03667986      -0.04255078       3.27988760      -0.01139839       0.04761030      -0.03089707
Ti       1.60879904       1.59473443       4.94638620       0.06300915       0.06613456      -0.01694897
Ti      -0.10636845       3.22225410       0.04424126       0.08343538       0.03543191      -0.06428022
Ti       1.69761179       4.85022965       1.66233349      -0.12729803       0.02312449      -0.01335318
Ti      -0.04349309       3.24572036       3.29070107       0.08948630      -0.06121771      -0.04022813
Ti       1.58498944       4.81631095       4.85334109       0.00365272       0.05391611       0.09053220
Ti       3.26558280      -0.00456591       0.00396367       0.02730536      -0.05052232      -0.01470799
Ti       5.01876008       1.64115808       1.54752092      -0.16725370      -0.04096010       0.12252627
Ti       3.23259864       0.01228707       3.20600262      -0.00062552       0.00053618       0.03942402
Ti       4.75624833       1.60281253       4.77910590       0.07023257       0.03591053       0.13252121
Ti       3.25064274       3.34996772       0.07125948       0.05712315      -0.12783957      -0.07771029
Ti       4.90516766       4.89993803       1.65696888      -0.02937664       0.00210977       0.00518579
Ti       3.15245880       3.30568950       3.27281785       0.13899285      -0.08019760      -0.04633641
Ti       4.95902819       4.85896031       4.86185750      -0.17787898       0.03347614      -0.03812822
16
Lattice="6.5 0.0 0.0 0.0 6.5 0.0 0.0 0.0 6.5" Properties=species:S:1:pos:R:3:forces:R:3 group=Ti_rattle10_b1 composition=Ti energy=-124.61214447021484 pbc="T T T"
Ti       0.02852670       0.18651849       0.06932610      -0.03634372      -0.21737219      -0.04528251
Ti       1.61755262       1.65622689       1.61078481       0.02096215      -0.01870577       0.07155725
Ti       0.06693598      -0.06355801       3.34063536      -0.02308437       0.09590178      -0.11960545
Ti       1.57962255       1.62889254       4.93567443       0.02468046      -0.02040983      -0.14530835
Ti      -0.01091837       3.25119638       0.02894728      -0.01867275       0.05479167      -0.00523567
Ti       1.54191414       4.87508282       1.54124250       0.12114920       0.11046547       0.08792540
Ti       0.03952169       3.20835026       3.01051789      -0.06474524       0.04765622       0.28767058
Ti       1.68762128       4.80935624       4.79137860      -0.06390134       0.08392447       0.10263368
Ti       3.33326048       0.11026381       0.08712970      -0.16849202      -0.10732350      -0.03591624
Ti       4.82358554       1.66348018       1.61543259      -0.01266088       0.02475272       0.07450888
Ti       3.29265647       0.02358846       3.16500468      -0.05453800      -0.01628369       0.15408069
Ti       4.95468973       1.55738202       4.99659494      -0.05192848       0.13006465      -0.15445375
Ti       3.05295546       3.23479694       0.00241738       0.24942814       0.02977775      -0.03993046
Ti       4.83248168       4.96121304       1.67998688       0.03254437      -0.11033387      -0.08284780
Ti       3.23118081       3.26689535       3.36562978       0.04038931      -0.05091282      -0.11484748
Ti       4.86595046       4.95249420       4.96269263       0.00521311      -0.03599310      -0.03494875
16
Lattice="6.5 0.0 0.0 0.0 6.5 0.0 0.0 0.0 6.5" Properties=species:S:1:pos:R:3:forces:R:3 group=Ti_rattle10_b1 composition=Ti energy=-124.5307846069336 pbc="T T T"
Ti       0.00560570       0.14304880      -0.01183999       0.08985984      -0.21292229       0.04969514
Ti       1.51778558       1.66924519       1.78516785       0.14877339      -0.09785207      -0.13530418
Ti      -0.07775683       0.04524607       3.30938317       0.19395579      -0.03538173       0.01526220
Ti       1.48054991       1.83841787       4.95064538       0.25965878      -0.15367392      -0.07753253
Ti      -0.03604910       3.03663341       0.03975489      -0.03938419       0.26051560       0.01118686
Ti       1.66185734       4.89375452       1.63853620      -0.12909986      -0.02145684      -0.09561985
Ti       0.10983930       3.25559498       3.20614819      -0.13744131      -0.02561171       0.01112935
Ti       1.67231312       4.72541073       4.85531511      -0.04202247       0.09211377       0.05214104
Ti       3.14490908      -0.17739545       0.01467013       0.06542063       0.16551128      -0.02306812
Ti       4.90424292       1.58957942       1.67343471      -0.08189942      -0.07316448      -0.04170093
Ti       3.25956100      -0.03513600       3.12575405      -0.07001263       0.05914797       0.20854548
Ti       4.89365896       1.47878370       4.91738110      -0.16274711       0.09272454      -0.09324116
Ti       3.40265735       3.22622805       0.08313087      -0.06806590       0.03953157      -0.09060951
Ti       4.83664809       4.85920039       1.79235892       0.13800216       0.05196889      -0.18653962
Ti       3.29706516       3.24879848       3.06544173       0.01563001      -0.03713213       0.24740231
Ti       5.05587897       4.92293537       4.76895832      -0.18062747      -0.10431843       0.14825352
16
Lattice="6.5 0.0 0.0 0.0 6.5 0.0 0.0 0.0 6.5" Properties=species:S:1:pos:R:3:forces:R:3 group=Ti_rattle10_b1 composition=Ti energy=-124.60834503173828 pbc="T T T"
Ti       0.01418848       0.02548819      -0.02449647      -0.02477752       0.02421905      -0.02905677
Ti       1.71094832       1.62801562       1.51330911      -0.03760547      -0.03544196       0.21069652
Ti      -0.03243894       0.03856080       3.29537475      -0.00781972      -0.00123256      -0.02156732
Ti       1.60158053       1.55577773       4.80845462       0.06455138       0.08096460       0.16942810
Ti      -0.03135148       3.28645071       0.01790014       0.06731961      -0.06315555       0.00180209
Ti       1.62220266       4.89951211       1.78400766      -0.03555226       0.01743978      -0.11972567
Ti       0.03715093       3.22151540       3.38410904      -0.08960250       0.02828102      -0.19340648
Ti       1.41182623       4.85283183       4.93101279       0.22589323       0.05685477      -0.07699467
Ti       3.30784963       0.03050116      -0.01367986      -0.13652524      -0.06898826      -0.03401398
Ti       4.88534233       1.48102760       1.68519603       0.01745435       0.20879826      -0.04868973
Ti       3.34824644       0.03840701       3.31363559      -0.03526335      -0.06057158      -0.04694312
Ti       4.85921541       1.77001118       4.88102724      -0.03940868      -0.08638589       0.04270668
Ti       3.14994434       3.29823044       0.10359962       0.05109018      -0.02465862      -0.05230841
Ti       5.06154672       4.92286898       1.42652328      -0.13178618      -0.03260529       0.25896993
Ti       3.26285815       3.23785690       3.27233242      -0.03201200       0.06294385      -0.10062188
Ti       4.73277142       4.92397242       4.89072813       0.14404415      -0.10646158       0.03972474
16
Lattice="6.5 0.0 0.0 0.0 6.5 0.0 0.0 0.0 6.5" Properties=species:S:1:pos:R:3:forces:R:3 group=Ti_rattle10_b1 composition=Ti energy=-124.51116943359375 pbc="T T T"
Ti      -0.00238138       0.07647194      -0.13125419      -0.04438310      -0.05950228       0.07849754
Ti       1.44935075       1.70047410       1.63843297       0.18366107      -0.03853019      -0.02310405
Ti       0.12668165       0.12830306       3.17579480       0.05141915      -0.14456278       0.08689065
Ti       1.70256800       1.83006244       4.80333459      -0.04421042      -0.17690028       0.07338555
Ti      -0.12796811       3.29638960      -0.02699421       0.09509864      -0.04840785       0.08744898
Ti       1.84345623       4.81986224       1.53802864      -0.25676316       0.01581515       0.01017459
Ti       0.05033052       3.26350210       3.30015590      -0.05033905       0.03831737      -0.08778454
Ti       1.52457397       4.96160818       4.98590669       0.12259720      -0.04466709      -0.14699751
Ti       3.36938150      -0.12266004      -0.01655305      -0.10109518       0.12881497      -0.05686308
Ti       4.76241455       1.56321257       1.75388523       0.13046761       0.08615319      -0.16371933
Ti       3.26423922      -0.02630602       3.15901842      -0.07242679       0.04394122       0.19534829
Ti       5.00731105       1.56441285       4.95956856      -0.18476443       0.06708127      -0.10527717
Ti       3.04050296       3.21582070       0.01870454       0.25366062       0.02088282      -0.01567584
Ti       4.90640755       4.94961058       1.67828344       0.01541898      -0.06786229      -0.01364940
Ti       3.37353920       3.16795437       3.16431326      -0.06308462       0.01017848       0.05428821
Ti       4.93236804       4.71247378       4.78475095      -0.03525653       0.16924828       0.02703710
16
Lattice="6.5 0.0 0.0 0.0 6.5 0.0 0.0 0.0 6.5" Properties=species:S:1:pos:R:3:forces:R:3 group=Ti_rattle18_b2 composition=Ti energy=-122.59526824951172 pbc="T T T"
Ti      -0.13437291       0.06545934       0.07654742       0.70732039       0.08630688      -0.02178747
Ti       1.49796390       1.92334755       1.82141271       0.39825225      -0.45261288      -0.38670740
Ti      -0.41039073       0.02018798       3.13994743       2.24951243       0.12576826       1.27457988
Ti       1.53002467       1.52080145       5.01953113      -0.07295513       0.18569683      -0.65616333
Ti       0.07267725       3.52498129      -0.26888142      -1.38293386      -1.42571759       1.31908119
Ti       1.35614294       4.86044172       1.63118653       0.39026904       0.33606750       0.99975288
Ti      -0.09933024       3.06396336       3.44459901       0.02915841       0.72521448      -0.12022630
Ti       1.87449069       4.72461889       5.39048584      -2.05746913       2.49367809      -3.62075329
Ti       3.13745088       0.31067020      -0.40257371       0.34638208       0.08192071       1.58262527
Ti       4.93553844       1.61136668       1.67236288      -0.62753028       1.15660548      -0.65631247
Ti       3.53645171      -0.17076155       3.12463615      -2.34121752       0.73274833       0.94612813
Ti       4.86793660       1.47184481       5.11946185       0.07455542       0.88059253      -0.34295481
Ti       3.11298079       3.61439433      -0.03943449       2.49624610      -2.84117508       2.39647293
Ti       4.77538502       5.24531936       1.70730161      -0.12700209      -2.07032728      -1.54785395
Ti       3.38145623       3.27619435       3.51578269      -0.15566905      -0.33563179      -0.72046751
Ti       4.92517971       4.87856651       5.04572036       0.07308053       0.32086661      -0.44541380
16
Lattice="6.5 0.0 0.0 0.0 6.5 0.0 0.0 0.0 6.5" Properties=species:S:1:pos:R:3:forces:R:3 group=Ti_rattle18_b2 composition=Ti energy=-123.3785171508789 pbc="T T T"
Ti      -0.08953825      -0.03479176       0.01806425       0.12183493       0.36315435       0.38861737
Ti       1.93581479       1.83573745       1.63727763      -0.65145892      -0.67812628       0.17640175
Ti       0.11255297       0.03153878       3.28399134      -0.03233675       0.34689876      -0.35677505
Ti       1.87939400       1.84454292       4.81235959      -0.28325403      -0.47868836       0.16601373
Ti       0.11412384       3.40252065       0.14830384      -0.57521200      -0.56600839      -0.10723861
Ti       1.69080963       4.74915946       1.52861288      -1.02712715       0.73469377       0.89794189
Ti       0.03190856       3.52649341       3.28023128      -0.01004013      -0.76127255      -0.47926450
Ti       1.25539715       4.85021362       5.04569346       1.27619171       0.36098787      -0.39907661
Ti       3.26869383      -0.18940288       0.20865792      -0.47896644       1.39162922      -1.52137041
Ti       4.94710410       1.96975798       1.52666892       0.25293362      -0.88513643       0.24293324
Ti       3.47659685      -0.13460589       3.14948269      -0.59235024       0.82049125       0.90946341
Ti       4.92291081       1.47459044       5.07535978      -0.03632229       0.33102664      -0.24451080
Ti       3.23350935       3.41123973       0.21037034       0.06030613      -1.00121522      -1.86478806
Ti       4.34230421       4.95686739       1.55954139       2.87689877      -0.20507121       0.73360682
Ti       3.33037317       3.17829637       3.20261177      -0.04233431      -0.01433314       0.83475173
Ti       5.09624457       4.75194172       4.69183598      -0.85876220       0.24096972       0.62329388
16
Lattice="6.5 0.0 0.0 0.0 6.5 0.0 0.0 0.0 6.5" Properties=species:S:1:pos:R:3:forces:R:3 group=Ti_rattle18_b2 composition=Ti energy=-123.88284301757812 pbc="T T T"
Ti       0.26933838      -0.07254788      -0.05371675      -0.40790993       0.27085540      -0.09474126
Ti       1.71813315       1.84169343       1.84181900      -0.39246631      -0.86254007      -0.79556596
Ti      -0.01214405      -0.32946477       3.31851875       0.16889104       0.37321216      -0.01545177
Ti       1.82218629       1.70208651       4.64302713      -0.07682150      -0.33825910       0.69613808
Ti      -0.23121702       2.92882102      -0.17111156       0.55274999       0.36833045       0.31499010
Ti       1.51581488       4.84646617       1.44995202       0.03692448      -0.17232411       0.33502614
Ti       0.27520674       2.90089926       3.40306699      -0.58039045       0.86528987      -0.11367892
Ti       2.07538543       5.11787426       4.80952019      -0.69851494      -1.00155592      -0.27819729
Ti       3.12436770      -0.18857500      -0.19793597       0.52940100       0.58999628       0.64502972
Ti       4.95201430       1.53342761       1.75339570       0.31263897      -0.34931362      -0.51262355
Ti       3.43233602      -0.01849316       3.21500193      -0.03894992      -0.11787254      -0.41243523
Ti       4.79722640       1.76233790       4.83703289       0.08101308      -0.61084533       0.22582364
Ti       3.17351393       3.16782139       0.18474161       0.23455393       0.09218742      -0.37759700
Ti       4.96573583       4.87800967       1.52487136       0.09854073      -0.08757170      -0.07186531
Ti       3.48639890       2.96262579       3.05138399      -0.03613307       1.03154135       0.15917063
Ti       4.88048394       4.74612893       4.67480944       0.21647264      -0.05113047       0.29597777
16
Lattice="6.5 0.0 0.0 0.0 6.5 0.0 0.0 0.0 6.5" Properties=species:S:1:pos:R:3:forces:R:3 group=Ti_rattle18_b2 composition=Ti energy=-124.07942199707031 pbc="T T T"
Ti      -0.12312525       0.18882618      -0.13238997       0.11635788      -0.43085480       0.20699090
Ti       1.43180040       1.80863642       1.54461459       0.31500304      -0.35778764       0.02532151
Ti       0.13922887      -0.02646864       3.15770480      -0.19426021      -0.06582340       0.19700815
Ti       1.28184756       1.72612710       4.96093865       0.42379975      -0.05990064      -0.21341571
Ti       0.05517021       3.41397504       0.06339237      -0.21805298       0.08338626      -0.14773963
Ti       1.78382715       5.00752548       1.68129013      -0.28919548      -0.17137717      -0.00094716
Ti       0.09535515       3.34923354       3.19386287      -0.12781352       0.12530763       0.20190951
Ti       1.71000134       5.09420775       5.29413003      -0.30139229      -0.38328522      -0.81029129
Ti       3.26074038      -0.30723841      -0.14065727       0.05459332       0.82499576       0.46882036
Ti       5.11566043       1.56820758       1.42795389      -0.40629229       0.09038045       0.36369717
Ti       3.42053261      -0.24381683       3.15277754      -0.19317313       0.44016719       0.03909325
Ti       4.72105876       1.44410089       4.97858048       0.11076823       0.33611369      -0.48075843
Ti       3.28338157       3.01841746      -0.11368017      -0.05278036       0.10524853       0.12070112
Ti       4.80277253       4.72733174       1.64804326       0.21384262       0.05050163      -0.06947894
Ti       3.17008241       3.18596239       3.05627528       0.08516533      -0.16549593       0.37099040
Ti       4.72315183       4.92515930       4.87364872       0.46343008      -0.42157626      -0.27190125
54
Lattice="9.75 0.0 0.0 0.0 9.75 0.0 0.0 0.0 9.75" Properties=species:S:1:pos:R:3:forces:R:3 group=Ti_rattle10_b9 composition=Ti energy=-420.4078674316406 pbc="T T T"
Ti      -0.01472727      -0.18657535      -0.20158636       0.02576113       0.18203346       0.11089966
Ti       1.63177067       1.62757161       1.71571618       0.04942806      -0.04975729      -0.15686382
Ti       0.03636466       0.12547194       3.16219686      -0.06256592      -0.11576530       0.11793147
Ti       1.66489529       1.75324993       4.77524722       0.10041340      -0.07682593       0.11018377
Ti       0.12461192      -0.13433651       6.50278462      -0.14081854       0.13557781      -0.13443066
Ti       1.56921589       1.68722958       8.12443852       0.09737726      -0.09265227      -0.02901769
Ti       0.08347790       3.31069160      -0.03029372      -0.05449112      -0.01361091       0.01212988
Ti       1.45460847       4.77297978       1.65702623       0.21804354       0.10687728       0.00742230
Ti      -0.04467296       3.21478173       3.19900356      -0.02112563       0.05626604       0.03251984
Ti       1.41251803       5.00292466       4.80683144       0.27666944      -0.02436029       0.01132159
Ti       0.12425274       3.44102468       6.52125354      -0.02220487      -0.09649438       0.01139887
Ti       1.69819542       4.95635439       8.19434116       0.09151695      -0.04730794      -0.12861931
Ti       0.04934937       6.47483780       0.04514026       0.00593344       0.13134907      -0.06741974
Ti       1.61212715       8.16379362       1.64874626       0.05607281       0.06011134      -0.01445353
Ti      -0.03938150       6.48199384       3.16831581      -0.04233707      -0.02929796       0.04714801
Ti       1.53021868       8.15557260       4.63310776       0.05767674      -0.08618837       0.22663596
Ti      -0.17285005       6.52347255       6.47652082       0.21677858       0.01107863       0.02250057
Ti       1.65279423       8.20300346       8.13810328       0.05080967      -0.19892538      -0.13355005
Ti       3.31660850      -0.08385027      -0.13415556      -0.09161966       0.09951729       0.05552724
Ti       4.87161076       1.66905561       1.54242926       0.06451296      -0.12104413       0.00859988
Ti       3.34687824      -0.08471864       3.13694919       0.03559907       0.11382614       0.18725409
Ti       4.92997100       1.62415743       5.05197341      -0.07787630       0.06149115      -0.16709086
Ti       3.30468376      -0.01173036       6.39114198      -0.13165817       0.00993184       0.06112073
Ti       5.03113216       1.55163363       8.15886960      -0.07678658       0.01847320      -0.05089031
Ti       3.34162150       3.20901498       0.13349853      -0.20002306      -0.04588626      -0.20035148
Ti       4.80978489       4.76753154       1.55342233       0.15643269       0.14237921      -0.00414441
Ti       3.40413977       3.36680969       3.10894594      -0.13394921      -0.09109785       0.20474128
Ti       4.84498346       4.88891192       4.76315072       0.02049203      -0.09579083       0.20720732
Ti       3.39632192       3.14465870       6.62075852      -0.18514234       0.11153688      -0.14478838
Ti       4.85615645       4.69124489       8.12684986       0.02356934       0.21894526       0.01970897
Ti       3.21337604       6.56160328      -0.01099847       0.05640953      -0.04913271       0.08922873
Ti       4.95555155       8.35245931       1.53113833       0.01591225      -0.15480000       0.04744767
Ti       3.35082160       6.60465098       3.26894167      -0.08600871      -0.08104154      -0.10404915
Ti       5.09078072       8.12186241       4.87205181      -0.21257178       0.01661637      -0.00630597
Ti       3.33286454       6.56388170       6.48528543      -0.15362427      -0.02635185      -0.10396541
Ti       4.81309582       7.84279301       7.98117074      -0.02126230       0.16565034       0.07847361
Ti       6.64738776       0.05691291       0.08879482      -0.03328599       0.01210258      -0.19591092
Ti       8.29950565       1.50471867       1.57107695      -0.09893046       0.08944050      -0.00612137
Ti       6.51265533       0.15331112       3.41518112       0.04261748       0.01386130      -0.17928305
Ti       8.15672480       1.72139892       4.73274368       0.10654574      -0.11865979       0.25106132
Ti       6.39351069      -0.13447326       6.60043529       0.20258711       0.12107773      -0.06880239
Ti       8.24706836       1.78447896       8.09031244       0.04009973      -0.25213587      -0.08697534
Ti       6.64689313       3.13779449      -0.12212385      -0.01246398       0.06947940       0.22288212
Ti       8.20697609       4.99448528       1.58567480      -0.17779213      -0.11859251       0.01408971
Ti       6.51983762       3.23351635       3.23780693      -0.02323030      -0.03345032      -0.09766508
Ti       8.03783986       4.71487244       4.93217692       0.04922932       0.18803872      -0.09815009
Ti       6.62939692       3.19080009       6.48200636      -0.10552680       0.05086209       0.04922935
Ti       8.03142361       4.98018327       8.24004850       0.05417726      -0.06980430      -0.09861652
Ti       6.46380815       6.55702469       0.02635489      -0.13146535      -0.05153417       0.06105824
Ti       8.06092143       8.15045399       1.62628735       0.03131526      -0.00967825       0.10686710
Ti       6.34733807       6.49165963       3.22256202       0.07385298      -0.09602758      -0.15467772
Ti       8.09209847       7.95643736       4.74830143       0.08897430       0.25492856       0.04562814
Ti       6.49597167       6.53962155       6.44814970       0.01211700      -0.14081851       0.05612951
Ti       8.09825906       8.12150928       8.16761497      -0.02416456      -0.05441970      -0.04420372
54
Lattice="9.75 0.0 0.0 0.0 9.75 0.0 0.0 0.0 9.75" Properties=species:S:1:pos:R:3:forces:R:3 group=Ti_rattle10_b9 composition=Ti energy=-420.19354248046875 pbc="T T T"
Ti       0.19157153       0.05682867      -0.00011786      -0.10275693      -0.14356987      -0.06597841
Ti       1.64646224       1.61642374       1.64596234       0.00770102       0.05533839       0.19700080
Ti      -0.05038202      -0.18795596       3.19186863      -0.06062985       0.18287176       0.06873477
Ti       1.65841513       1.57415960       4.73164968      -0.06151079      -0.02008078       0.05989116
Ti      -0.01767878       0.17146826       6.66859529      -0.04861448      -0.15406363      -0.17433006
Ti       1.69368016       1.46164965       8.03870173      -0.08283678       0.29894453       0.00083078
Ti      -0.01111103       3.28075502       0.15774568       0.07340818      -0.07640724      -0.19788957
Ti       1.47545469       4.86091517       1.64424021       0.09960536       0.14626214      -0.06378758
Ti       0.05052743       3.24549631       3.31165353      -0.13664074       0.00050967      -0.01077898
Ti       1.63968904       4.90106132       4.98537977      -0.07542156      -0.01970015      -0.11759140
Ti       0.09406493       3.36683214       6.44046148      -0.12356797      -0.26659352       0.06698249
Ti       1.63096539       4.88860986       8.08675535       0.03949229      -0.09186176       0.19342542
Ti      -0.09916881       6.61291804      -0.22550879       0.12516733      -0.10840896       0.23343019
Ti       1.78307372       8.17524749       1.81666947      -0.10863463      -0.03772320      -0.14466628
Ti       0.03276193       6.59263299       3.29201391      -0.02842555      -0.04445411      -0.05059117
Ti       1.60127522       8.31718400       4.89946190      -0.00653917      -0.08507480       0.13897733
Ti       0.05721947       6.43552052       6.69172948      -0.13493082      -0.00102192      -0.16026121
Ti       1.68257917       8.10658166       8.00410674       0.02982096       0.01476594       0.03810270
Ti       3.00536645       0.03017506      -0.05388240       0.31326249      -0.09188092       0.07463302
Ti       4.85416991       1.57664186       1.69036992      -0.00961147       0.14720847      -0.13867944
Ti       3.35299234       0.02054294       3.24126429       0.02527669      -0.04474353      -0.03909337
Ti       4.94733973       1.67631944       4.83629817       0.00114783      -0.03728687      -0.03961765
Ti       3.31216318       0.09303769       6.53364453       0.12705360      -0.14292774      -0.09703458
Ti       4.76446196       1.62176979       8.10628599       0.07014293      -0.06866171       0.17067617
Ti       3.10507463       3.21504069       0.02494583       0.15487266       0.07158858       0.02969412
Ti       4.94708545       4.92963803       1.53148623      -0.12800513      -0.01831427       0.02933836
Ti       3.33534889       3.39992001       3.26310682      -0.06594465      -0.04220596      -0.03838311
Ti       4.98902160       4.92154176       4.94605044      -0.15843393       0.05344161      -0.02612887
Ti       3.31358900       3.18195428       6.40431955      -0.15990236       0.00748949       0.00631602
Ti       4.92421049       4.80106274       7.84808259      -0.07921889       0.03265792       0.32472503
Ti       3.17383939       6.58623029       0.10390897       0.05401620      -0.06584667      -0.05915348
Ti       5.22267369       8.00793782       1.73281752      -0.36853695      -0.02493013      -0.05791349
Ti       3.07989833       6.52436241       3.34076473       0.14736448      -0.11728191      -0.13306649
Ti       4.85586565       8.14380529       4.78881192       0.03503564      -0.10091788       0.23234850
Ti       3.11945070       6.23746306       6.60473605       0.15886319       0.27834326      -0.08568298
Ti       4.95983812       8.08558364       8.24088358      -0.15021747       0.06885998      -0.14223468
Ti       6.61496154      -0.09478937       0.20664620      -0.14197442       0.16306072      -0.17770782
Ti       8.36354276       1.63530358       1.41096865      -0.15827104       0.05843302       0.21077871
Ti       6.37995533      -0.05273020       3.26388106       0.25232023       0.05692152       0.01569811
Ti       8.08589540       1.49614123       4.85634902       0.05784262       0.12668103       0.00560611
Ti       6.44648383       0.06771600       6.57023832       0.02620993      -0.23338521      -0.09890459
Ti       8.03027014       1.47886024       8.00244733       0.12665531       0.13645011       0.20280223
Ti       6.47095294       3.20509174      -0.06559856       0.00372699      -0.09415213       0.08461788
Ti       8.07574866       4.87632406       1.65113920       0.08454523       0.01933914      -0.09142501
Ti       6.49195059       3.42316326       3.34135006       0.03103348      -0.23456496      -0.15669456
Ti       8.11474847       4.83333293       4.90160784       0.08821937       0.07322711      -0.04821537
Ti       6.48336199       3.23206060       6.62868875       0.06023482      -0.11590402      -0.15270081
Ti       7.97065404       4.71614753       8.29371905       0.19159573       0.03265743      -0.07599495
Ti       6.44227484       6.52577499      -0.09629208       0.04657233      -0.10173940       0.07932390
Ti       8.14849909       8.27650116       1.48745319      -0.00427367      -0.15068382       0.11711521
Ti       6.48253044       6.38581293       3.27244393       0.10810354       0.07098016       0.04184373
Ti       8.12882982       7.91979922       4.91650900      -0.02844972       0.24108513       0.07437493
Ti       6.54991951       6.29575876       6.40538539      -0.03607582       0.25576434       0.13274139
Ti       8.14573541       8.05880871       8.21718763      -0.07986573       0.14150558      -0.18550320
54
Lattice="9.75 0.0 0.0 0.0 9.75 0.0 0.0 0.0 9.75" Properties=species:S:1:pos:R:3:forces:R:3 group=Ti_rattle10_b9 composition=Ti energy=-420.29547119140625 pbc="T T T"
Ti      -0.00670392      -0.07174391       0.05540004      -0.06331743       0.13534178      -0.11788405
Ti       1.53389888       1.53875731       1.56834679       0.13096471       0.16985156       0.16250858
Ti       0.05942319      -0.01477814       3.34153853       0.00930099      -0.03106409      -0.19461785
Ti       1.59919069       1.56570424       4.87673220       0.09646752       0.18336181      -0.02767256
Ti      -0.08881884      -0.01988886       6.39938764       0.14043850       0.06937867       0.10103949
Ti       1.66363609       1.69624065       8.11276088      -0.19521533       0.02769083      -0.04508451
Ti      -0.05972884       3.34412058      -0.02142631       0.09913529      -0.09373371       0.02340053
Ti       1.59829351       4.99337819       1.75429652       0.03348646      -0.01580812      -0.26038122
Ti      -0.09127113       3.35393246       3.10388164       0.24406295      -0.13578159       0.05457805
Ti       1.53675415       4.87706004       4.90411398       0.12899560      -0.04181883       0.04284561
Ti      -0.07599133       3.20470366       6.48426918       0.10975175      -0.03492639       0.04197149
Ti       1.61959650       4.90450254       8.10561879      -0.05715714       0.04689065      -0.05383894
Ti      -0.12055369       6.59381447      -0.24248490       0.09722043      -0.10230104       0.16117716
Ti       1.57019505       8.13605862       1.40649421       0.09933250      -0.00700048       0.18076424
Ti       0.05892199       6.36172481       3.18528348      -0.01763844       0.19050211       0.01337816
Ti       1.55352211       8.10947124       4.76435957       0.09462705      -0.01573182       0.13147447
Ti      -0.03175602       6.66505274       6.41226079      -0.02817208      -0.06725935       0.07669608
Ti       1.61620563       8.10191117       8.05101303       0.09073998       0.08216275       0.08904810
Ti       3.13812566       0.28650248      -0.07904923       0.08663595      -0.27517495       0.10206369
Ti       4.98599703       1.59638698       1.69700171      -0.33312559      -0.07892231      -0.06201033
Ti       3.18583317      -0.16252458       3.39466650       0.13466433       0.13303794      -0.17154633
Ti       4.99505492       1.70437016       4.97933844      -0.23415007      -0.02568994      -0.09364258
Ti       3.27571363       0.01843732       6.53554769       0.06347392      -0.11251870      -0.16365704
Ti       4.64182126       1.73677717       8.19437674       0.29100198      -0.04307231      -0.05133286
Ti       3.27479074       3.32773954      -0.04036111      -0.09591131       0.03141377       0.27390695
Ti       5.12161138       4.92675257       1.52566354      -0.32842460      -0.08220141       0.08703057
Ti       3.26437660       3.39667742       3.28249133       0.00916718      -0.19664648      -0.10007079
Ti       4.76604077       4.86675456       4.93037683       0.22753426       0.02779860      -0.08895081
Ti       3.41181900       3.36528097       6.58787770      -0.20184855      -0.06821126      -0.13876122
Ti       4.94750421       4.89904919       8.15881336       0.01720016       0.05000181       0.05754852
Ti       3.32001693       6.52591762       0.01677100      -0.13178216      -0.13971892      -0.01520360
Ti       4.89388713       8.18404021       1.39688241      -0.03745181       0.10293046       0.27777642
Ti       3.32119736       6.42545078       3.30962473       0.01608231       0.12523651      -0.15377860
Ti       4.98325732       7.99857444       4.82392413       0.02329752       0.13246804      -0.01696611
Ti       3.28071998       6.54738439       6.51500861      -0.03132325      -0.00042796      -0.08002859
Ti       4.80685391       8.03822223       8.22842376       0.04455861       0.12829700       0.04554733
Ti       6.58760480       0.06338270      -0.10625720      -0.07806309       0.00253056       0.10112378
Ti       7.95896835       1.68467301       1.76418176       0.26819658      -0.17690615      -0.13876875
Ti       6.48980337       0.19921823       3.33118347      -0.05958721      -0.32687876      -0.03482344
Ti       8.26501340       1.66876919       4.71676554      -0.15538669       0.03093806       0.17192361
Ti       6.40333579       0.00921831       6.60831182      -0.07301145       0.02202183      -0.05847478
Ti       8.14995148       1.59749049       8.08665953       0.03393218       0.01958640       0.01098706
Ti       6.61995795       3.15481486       0.09015392      -0.03102275       0.05652594      -0.24226734
Ti       8.18015929       4.83488244       1.63427334       0.06756228       0.06080503      -0.06396046
Ti       6.49477997       3.06208770       3.02265012      -0.03676606       0.19610891       0.28655976
Ti       8.30704005       4.87191519       4.81022152      -0.27397600       0.00732842       0.10738912
Ti       6.46975276       3.33139738       6.54667436       0.12616012      -0.06498618      -0.09731203
Ti       8.18107586       4.89917866       7.95939514      -0.11721282      -0.01218069       0.05538188
Ti       6.56046009       6.39306106       0.13099757       0.06920301       0.13494289      -0.18111271
Ti       8.24248756       8.04117445       1.65650467      -0.10914481       0.17200226       0.02639136
Ti       6.60520601       6.35892519       3.01746141      -0.11486232       0.16043279       0.27257878
Ti       8.11615513       8.31302745       4.91309832      -0.17207493      -0.19225019      -0.16471565
Ti       6.42860087       6.55457843       6.47408665       0.13564904      -0.06412613      -0.07627079
Ti       8.03658209       8.25237158       8.13908964      -0.01221729      -0.09424967      -0.06195681
54
Lattice="9.75 0.0 0.0 0.0 9.75 0.0 0.0 0.0 9.75" Properties=species:S:1:pos:R:3:forces:R:3 group=Ti_rattle10_b9 composition=Ti energy=-420.083740234375 pbc="T T T"
Ti       0.05144038       0.12615503       0.10183264      -0.10148165      -0.13456781      -0.02306936
Ti       1.68351347       1.43664814       1.73436593       0.00040912       0.18938403       0.06519790
Ti      -0.13142643      -0.03530515       3.27521120       0.22313997       0.03683935       0.05687546
Ti       1.44989510       1.89861475       4.91484303       0.18198180      -0.31248274      -0.09543502
Ti       0.19024189      -0.00676404       6.50848041      -0.21224338       0.10255323      -0.09807472
Ti       1.58240182       1.55814296       8.21517358       0.00414411       0.06784903      -0.01416485
Ti      -0.04768496       3.29112431       0.03337122       0.10961448      -0.06062029      -0.12823887
Ti       1.48846685       4.81138124       1.60625278       0.21229059       0.00591273       0.02127460
Ti       0.03960478       3.22102612       3.35354977      -0.06654289      -0.04566405      -0.12408757
Ti       1.58738526       4.88955849       4.68021153       0.04167661      -0.05927231       0.30714920
Ti       0.00969777       3.19056551       6.45611283      -0.07810318       0.11504173       0.05369342
Ti       1.72109352       4.88104944       8.09402545      -0.17409438       0.01111999       0.09433457
Ti      -0.07208745       6.54428232       0.25399694       0.06052293      -0.01468870      -0.25987470
Ti       1.51754350       7.99194899       1.60980559       0.08366860       0.02220655       0.20716891
Ti      -0.07728523       6.22303190       3.41797653       0.05102508       0.28337774      -0.14622283
Ti       1.52943845       8.08262904       4.79239170       0.04593197       0.06418457      -0.00336061
Ti      -0.00207189       6.60824870       6.61181853       0.01881943      -0.18679179      -0.09257618
Ti       1.51489422       8.33768696       8.00719256       0.15651083      -0.18447676       0.21835355
Ti       3.18428220      -0.02366344       0.23242731       0.04987849      -0.12229599      -0.17934090
Ti       4.80687295       1.61803745       1.61899866       0.10451505       0.07166502       0.09794024
Ti       3.28637588      -0.02323217       3.46134512      -0.06735948       0.00544584      -0.15951760
Ti       4.99036500       1.53063635       4.89827868      -0.07892040       0.11399225       0.08293853
Ti       3.25733039       0.05796738       6.62406356       0.01072434      -0.02320996      -0.30574077
Ti       4.82306444       1.43078613       8.14955338       0.06658736       0.17429093       0.03430005
Ti       3.14942552       3.13843250      -0.07210960       0.05478443       0.05399016       0.09827312
Ti       4.81801248       4.79625060       1.57255324       0.18050624       0.01284788       0.01218777
Ti       3.29636495       3.29745990       3.31007051       0.03045354      -0.15129587      -0.06013202
Ti       4.81959603       4.93266414       4.77407687       0.10009301       0.01618202       0.22123544
Ti       3.13107593       3.18010761       6.58509855       0.21060441       0.04357120      -0.06764189
Ti       4.60308696       5.02595117       8.26015165       0.26901412      -0.08323397      -0.10081019
Ti       3.26077894       6.35977273       0.11620513      -0.06713010       0.21818329      -0.04080366
Ti       4.96484118       8.09636987       1.57343146      -0.12190652      -0.06717071       0.08873697
Ti       3.24940808       6.37015500       3.45942630       0.00600057       0.11453830      -0.33022550
Ti       4.89240650       8.09873172       4.65015458       0.00213769       0.00300162       0.29801258
Ti       3.05992429       6.49893477       6.42662481       0.15403484       0.09947663       0.02949964
Ti       4.83400020       8.10004697       8.08646183      -0.05222555      -0.04523759       0.21392709
Ti       6.55926644       0.08525182       0.08441024      -0.03196208      -0.11097519      -0.16997245
Ti       8.26931187       1.62878182       1.61240973      -0.15528655       0.10967649       0.05814528
Ti       6.63808708      -0.08901538       3.17251928      -0.20119384       0.16960388       0.02644022
Ti       7.95668378       1.68434686       4.69347078       0.06597729      -0.09238815       0.26057696
Ti       6.37742509      -0.04951111       6.58635891       0.17954987      -0.08963677      -0.05258049
Ti       8.11856952       1.63506633       8.14509715       0.01357678      -0.07250843      -0.08273499
Ti       6.60527778       3.20048206      -0.10490340      -0.19313399       0.04034619       0.09433861
Ti       8.32658745       4.84033843       1.63602494      -0.32735467      -0.09320955       0.00350365
Ti       6.49770642       3.28751551       3.43442192      -0.07039861       0.01396547      -0.31490570
Ti       8.03093259       4.93318884       4.80011660       0.05665906      -0.05425858       0.19752562
Ti       6.66033094       3.39278245       6.47882621      -0.28825957      -0.10529533       0.06685694
Ti       8.10206972       4.82448289       8.09913293       0.11710341       0.10268541       0.04665583
Ti       6.65592717       6.58152728       0.00111439      -0.15306637      -0.11802703      -0.02449886
Ti       8.05259272       8.20509826       1.77617372       0.14764681      -0.07192506      -0.19950779
Ti       6.70559513       6.67830527       3.33952644      -0.24613693      -0.24831864      -0.14691597
Ti       8.20110739       8.12948920       4.86586474      -0.03321341       0.08136523       0.24076441
Ti       6.54919267       6.49092012       6.56201325      -0.12563266       0.03448863      -0.03089304
Ti       8.35130708       8.06036224       8.09175225      -0.16393644       0.16976589       0.05541990
16
Lattice="6.40108872512687 0.0 0.0 0.0 6.40108872512687 0.0 0.0 0.0 6.40108872512687" Properties=species:S:1:pos:R:3:forces:R:3 group=Ti_strain_vol_b0 composition=Ti energy=-124.5499267578125 pbc="T T T"
Ti       0.02646190       0.03672397       0.04087673      -0.05923231      -0.01567739      -0.07398952
Ti       1.66249590       1.58555206       1.56246822      -0.07516043       0.06429064       0.07878654
Ti      -0.01663926       0.01832648       3.17915802       0.05902340      -0.01334889      -0.00027506
Ti       1.58449921       1.62461394       4.84955525       0.01206243      -0.05402036      -0.09173163
Ti       0.05153848       3.23074661       0.00611629      -0.10238646      -0.07005891       0.01482511
Ti       1.58428459       4.78852883       1.53227216       0.07325475       0.02476023       0.09801445
Ti       0.03868290       3.20789571       3.21019629      -0.02547500      -0.02797444      -0.03340048
Ti       1.61516172       4.79172603       4.80662882      -0.00931323       0.09215504      -0.02647551
Ti       3.19608829       0.04856358      -0.01197585       0.01420221      -0.09902102      -0.01694597
Ti       4.77494403       1.58340955       1.61182333       0.02638802       0.10144078      -0.01392369
Ti       3.21605780       0.03167163       3.16418971      -0.06286016      -0.08836856       0.04643166
Ti       4.77008449       1.58400568       4.78470646       0.09552170       0.04912296       0.03335157
Ti       3.18810643       3.19214897      -0.01254444       0.08911081       0.02884154      -0.00962778
Ti       4.82034593       4.79698365       1.55405354      -0.01865387      -0.02544197       0.03766542
Ti       3.18913721       3.19970661       3.23602068       0.00300348       0.02142321      -0.07577514
Ti       4.82717051       4.81307732       4.78093697      -0.01948512       0.01187719       0.03306995
16
Lattice="6.5 0.0 0.0 -0.09793901305310632 6.5 0.0 0.0 0.0 6.5" Properties=species:S:1:pos:R:3:forces:R:3 group=Ti_strain_shear_b0 composition=Ti energy=-124.78500366210938 pbc="T T T"
Ti       0.00839101      -0.06837937       0.01729470       0.00116245       0.01209816      -0.01273903
Ti       1.60565026       1.59100267       1.60217418      -0.02632343      -0.01227792       0.05481904
Ti      -0.02049180      -0.02712354       3.25255813       0.00771306       0.02017042       0.00238390
Ti       1.57541520       1.62500719       4.85902232       0.01644545      -0.02997501       0.05557179
Ti      -0.02830657       3.22303746       0.02639938       0.01474635       0.07234909      -0.01972625
Ti       1.56579898       4.91178631       1.73744202      -0.00940833      -0.03942953      -0.11851270
Ti      -0.02348303       3.24571711       3.28651384      -0.03689926      -0.05064921      -0.07656477
Ti       1.58405853       4.86189892       4.85657902      -0.04949686      -0.00582889       0.00353230
Ti       3.24155705      -0.03060558      -0.01858682      -0.00384193      -0.02164161      -0.02513799
Ti       4.85276123       1.59676444       1.58365059      -0.02929524       0.04740731       0.03290700
Ti       3.23911443      -0.00745481       3.28171568       0.05780544       0.04829046      -0.02719287
Ti       4.85820447       1.57245539       4.87145715      -0.01840844       0.06609776       0.02116624
Ti       3.13869501       3.25182898       0.00108747       0.05007122      -0.01923805       0.00863102
Ti       4.78151550       4.83416252       1.64270183       0.01040275      -0.00295667       0.01432472
Ti       3.17482377       3.25108859       3.23233142       0.04519124      -0.06714231       0.02192786
Ti       4.81083396       4.83667185       4.84112649      -0.02986437      -0.01727400       0.06460977
16
Lattice="6.780397623206511 0.0 0.0 0.0 6.780397623206511 0.0 0.0 0.0 6.780397623206511" Properties=species:S:1:pos:R:3:forces:R:3 group=Ti_strain_vol_b0 composition=Ti energy=-124.02367401123047 pbc="T T T"
Ti      -0.00987103       0.06880387       0.00467937       0.00531639      -0.08880481       0.00081391
Ti       1.70119864       1.69312020       1.67548367       0.04045081      -0.02409270       0.05103075
Ti       0.00001566      -0.03020170       3.40947107      -0.01097305       0.02741656      -0.01020380
Ti       1.66806044       1.71816933       5.09594417       0.04234263      -0.03550215       0.00116857
Ti       0.02027207       3.35958601       0.04017660      -0.00775918       0.01344109      -0.03989566
Ti       1.69455046       5.10026995       1.69681085       0.01472521       0.01061463       0.03101319
Ti       0.07088080       3.34674248       3.39764957      -0.10191107       0.05338245      -0.03148847
Ti       1.65043661       5.04364011       5.09601108       0.04734811       0.05272707      -0.02083729
Ti       3.40148395      -0.02590371       0.04990677      -0.01341560      -0.00876742      -0.07481071
Ti       5.03090851       1.71313666       1.66225516       0.05117358      -0.01359028       0.03416897
Ti       3.40786676       0.05299441       3.37628049       0.00811237      -0.05586445       0.02249824
Ti       5.14674455       1.68067571       5.13527686      -0.08032902       0.03320935      -0.04672695
Ti       3.34680772       3.43751872       0.00709345       0.03872509      -0.00464973      -0.02119322
Ti       5.08551607       5.07230303       1.66093640       0.00527697       0.01403591       0.06358773
Ti       3.43690757       3.38048320       3.38897436      -0.06086154      -0.00369859       0.02928888
Ti       5.08934658       5.06308284       5.07385191       0.02177831       0.03014324       0.01158583
16
Lattice="6.861014950789409 0.0 0.0 0.0 6.861014950789409 0.0 0.0 0.0 6.861014950789409" Properties=species:S:1:pos:R:3:forces:R:3 group=Ti_strain_vol_b0 composition=Ti energy=-123.44791412353516 pbc="T T T"
Ti      -0.02822003       0.00023367       0.00674359       0.03508317      -0.00947666      -0.01460782
Ti       1.69735870       1.72655366       1.69588398       0.00972841      -0.00971473       0.00343207
Ti      -0.02059895      -0.07619554       3.44742509       0.01650446       0.05903244      -0.01773731
Ti       1.69930217       1.68954326       5.18842837       0.00789398       0.02174190      -0.02495489
Ti       0.00213711       3.45458870       0.00205243      -0.01989798      -0.02647054      -0.00135507
Ti       1.69777559       5.16838047       1.72123812       0.01697344      -0.03180266       0.02074177
Ti       0.02716114       3.44028197       3.41901097      -0.01585111       0.01772944       0.00078548
Ti       1.71638346       5.16682789       5.12689241       0.00303555      -0.01760197       0.01561504
Ti       3.42010449      -0.02651436       0.01060471       0.00037709       0.05788997      -0.00355614
Ti       5.17255896       1.67344668       1.68312497      -0.00829855       0.02251643       0.04785044
Ti       3.40227394       0.01962135       3.45355586       0.01459983      -0.00744608      -0.03055322
Ti       5.15914291       1.72522310       5.12113765       0.00332320      -0.01404649       0.01589039
Ti       3.49913381       3.36488475      -0.00708086      -0.03038751       0.02342173      -0.00836003
Ti       5.15013853       5.15184672       1.68223320      -0.01259959      -0.01671782       0.03291278
Ti       3.43594770       3.44731155       3.47625707      -0.02311876      -0.02302570      -0.02895913
Ti       5.12684644       5.17043781       5.16406819       0.00263437      -0.04602931      -0.00714437
16
Lattice="6.129738174551805 0.0 0.0 0.0 6.129738174551805 0.0 0.0 0.0 6.129738174551805" Properties=species:S:1:pos:R:3:forces:R:3 group=Ti_strain_vol_b0 composition=Ti energy=-122.47042846679688 pbc="T T T"
Ti       0.01184195       0.02460472      -0.01113463       0.03385920      -0.04150687       0.02372996
Ti       1.52578528       1.56904693       1.54692691      -0.02627490      -0.10019283      -0.01394208
Ti      -0.02207279      -0.02105797       3.06334605       0.02178910       0.03971727      -0.01520707
Ti       1.52172890       1.52035726       4.59615257      -0.01231626      -0.05464518      -0.05462116
Ti       0.05698058       3.03572705      -0.02866201      -0.11180538       0.04799557       0.05843788
Ti       1.55977305       4.58604314       1.54471843      -0.02562916       0.05736430      -0.04050545
Ti      -0.01584112       3.11749624       3.09152793      -0.06069791      -0.08773483      -0.06001554
Ti       1.51234851       4.60913866       4.61126923       0.04004645       0.04845931      -0.02320283
Ti       3.07740016      -0.02216900      -0.01429787      -0.07750553      -0.04433138       0.03256942
Ti       4.59266961       1.48412781       1.49456917       0.01818573       0.08468917       0.08572008
Ti       3.03468320       0.01633921       3.06684868      -0.01686409      -0.00800364      -0.01136312
Ti       4.54422311       1.50305999       4.62080695       0.06077647       0.05886859      -0.06506778
Ti       3.01452064       3.04110651      -0.04169891       0.07052764       0.03939936       0.04565059
Ti       4.57536698       4.59142854       1.52325082       0.03071868      -0.04891159      -0.02265620
Ti       3.00008964       3.03922625       3.05202627       0.10689469       0.02793775       0.04397947
Ti       4.60475498       4.59446375       4.59453122      -0.05170424      -0.01910484       0.01649388
16
Lattice="6.5 0.0 0.0 0.032825818568061854 6.5 0.0 0.0 0.0 6.5" Properties=species:S:1:pos:R:3:forces:R:3 group=Ti_strain_shear_b0 composition=Ti energy=-124.77151489257812 pbc="T T T"
Ti      -0.03207174      -0.02379364      -0.00897196       0.03082502       0.05665661      -0.04006889
Ti       1.63433780       1.64548655       1.58523466       0.00082833      -0.08472928       0.02995177
Ti       0.04032007      -0.02322549       3.23000495      -0.04430763      -0.01653521      -0.01247084
Ti       1.58344488       1.61964105       4.80655960       0.04690681       0.01279835       0.10787056
Ti       0.05645435       3.22052294       0.02555495      -0.11223874       0.02995122      -0.03347731
Ti       1.59793080       4.91313083       1.59285356       0.14998819      -0.04373567       0.02633634
Ti       0.03025720       3.24645748       3.20500396      -0.00810534      -0.01011540      -0.00399612
Ti       1.63779511       4.82625591       4.84057659      -0.00230984       0.04692127      -0.01080007
Ti       3.25551103       0.00167064      -0.05323724      -0.00633674      -0.01355383       0.01469455
Ti       4.89368929       1.59881068       1.66992136      -0.03615121       0.02968642      -0.08926384
Ti       3.26956098       0.02928993       3.27125070      -0.08682032      -0.02899320      -0.03165632
Ti       4.88283208       1.61689460       4.83074699       0.09705333       0.00359797       0.04427953
Ti       3.27425410       3.28932687      -0.01015858      -0.01456718      -0.06960693      -0.02088326
Ti       4.88322885       4.87289422       1.60602555       0.00098059       0.00015758       0.05714796
Ti       3.28223074       3.14450318       3.27642996      -0.00502322       0.15404743      -0.07317874
Ti       4.92413952       4.87884401       4.83515836      -0.01072217      -0.06654737       0.03551468
16
Lattice="6.5 0.0 0.0 0.0 6.5 0.0 0.15298706329426937 0.0 6.5" Properties=species:S:1:pos:R:3:forces:R:3 group=Ti_strain_shear_b0 composition=Ti energy=-124.77188110351562 pbc="T T T"
Ti       0.03233089       0.04822209       0.02557068      -0.10929133      -0.04950827      -0.02675786
Ti       1.57894475       1.65727633       1.62064038       0.11866570      -0.05111843       0.01107103
Ti       0.06052003      -0.01046289       3.20108542       0.00131301       0.03665051       0.09172017
Ti       1.77869419       1.62742210       4.84435912      -0.03602861       0.00941792       0.01083712
Ti      -0.01574949       3.25930591       0.02096495       0.01985108      -0.04023508      -0.05392194
Ti       1.63599301       4.91220060       1.62110895       0.04874285      -0.03093986       0.02427262
Ti       0.12323522       3.24238660       3.24687436      -0.09255774       0.01680026      -0.01039062
Ti       1.71673574       4.87587315       4.88186839       0.06423296       0.03780903       0.02392450
Ti       3.28218459       0.02884615       0.02236323      -0.08307426      -0.02417295      -0.03834787
Ti       4.87537001       1.60380546       1.60538891       0.08179539       0.05257384       0.04756575
Ti       3.36288536       0.02324561       3.27450453      -0.03866288      -0.04939121      -0.05051740
Ti       4.95212144       1.63986355       4.85995582       0.05682984      -0.00775348       0.04746206
Ti       3.24240721       3.24736232       0.02562645       0.00684408       0.03653931       0.00658746
Ti       4.90253909       4.85914416       1.67747263       0.00914791       0.04218151      -0.06918405
Ti       3.33943930       3.24594933       3.21831138      -0.08130790       0.01087299       0.01629531
Ti       4.99792125       4.85267732       4.90077920       0.03349992       0.01027392      -0.03061629
16
Lattice="6.5 0.0 0.0 0.0 6.5 0.0 0.04972524819080682 0.0 6.5" Properties=species:S:1:pos:R:3:forces:R:3 group=Ti_strain_shear_b0 composition=Ti energy=-124.77780151367188 pbc="T T T"
Ti      -0.05035394       0.01487195      -0.01549934       0.09361932       0.01634189       0.06494313
Ti       1.66888056       1.65691532       1.63767669      -0.02683258      -0.03330653      -0.04581459
Ti       0.06054929      -0.03862262       3.23171976      -0.03100678       0.06642591       0.02838843
Ti       1.70350755       1.65837537       4.85358937      -0.06616395      -0.09527913       0.05979426
Ti       0.03808148       3.25193131      -0.01886192      -0.01992179      -0.05325922      -0.00053918
Ti       1.67129208       4.83049111       1.60391574      -0.05514853       0.06140946       0.00032096
Ti       0.03190047       3.23388409       3.27665419      -0.02775993       0.02718185      -0.05574121
Ti       1.64154382       4.88775504       4.90232926       0.03736067       0.00010637      -0.02681710
Ti       3.28724084      -0.02638306       0.02884613      -0.04562053       0.03333042      -0.05131496
Ti       4.85040523       1.63197285       1.60630097       0.06519704      -0.00019479       0.01991288
Ti       3.22780816       0.04243551       3.26342873       0.05574896      -0.09564496      -0.03403147
Ti       4.91775554       1.60086631       4.90471927      -0.03290471       0.03541839      -0.03692552
Ti       3.21881541       3.28549841      -0.02935098       0.02760447      -0.00986503       0.01718121
Ti       4.89797325       4.87113350       1.59440680      -0.03490403      -0.03533633       0.07446031
Ti       3.25348038       3.22383198       3.23714059       0.07449076       0.03484115       0.05102403
Ti       4.92658735       4.84130011       4.89691806      -0.01375849       0.04783055      -0.06484118
16
Lattice="6.5 0.0 0.0 0.0 6.5 0.0 0.0 0.0 6.5" Properties=species:S:1:pos:R:3:forces:R:3 group=Ti_md600_b0 composition=Ti energy=-124.43778991699219 pbc="T T T"
Ti      -0.11898957      -0.13672708       0.01469837       0.10280033       0.19987772       0.07682612
Ti       1.59005348       1.60088836       1.53912347       0.13722989      -0.01669713       0.11092175
Ti      -0.00318056      -0.00107360       3.11618093      -0.04107273       0.09683216       0.01590735
Ti       1.55404810       1.65410726       4.93374063       0.07841141      -0.15099126      -0.07736506
Ti       0.13037235       3.05655918       0.00301571      -0.09741037       0.21714485      -0.01659524
Ti       1.78286925       4.86261879       1.62842770      -0.23182333       0.02787333       0.01256868
Ti      -0.01842008       3.33928570       3.53597202       0.02197570      -0.06285399      -0.28453428
Ti       1.46890027       4.86868611       4.76227485       0.10403897       0.02367145       0.15864632
Ti       3.18810639      -0.13837500      -0.01091982       0.08175732       0.20844378       0.00135653
Ti       4.94903721       1.99043737       1.46135587      -0.02425427      -0.27771202       0.17077044
Ti       3.21085311      -0.03016842       3.37056601       0.04002804       0.14340806      -0.17781846
Ti       4.92860595       1.64276452       4.78381332      -0.18741202      -0.03395851       0.07909048
Ti       3.29701409       3.30824362      -0.03343221      -0.06989905      -0.05953766      -0.04189256
Ti       5.04221834       4.82995888       1.64590012      -0.13789961       0.01128479      -0.02743119
Ti       3.15258833       3.50072291       3.12354823       0.10699403      -0.23604839       0.12665918
Ti       4.80834374       5.01633748       5.01771518       0.11653575      -0.09073712      -0.12711006
16
Lattice="6.5 0.0 0.0 0.0 6.5 0.0 0.0 0.0 6.5" Properties=species:S:1:pos:R:3:forces:R:3 group=Ti_md600_b0 composition=Ti energy=-124.15313720703125 pbc="T T T"
Ti       0.18661068       0.48147467       0.11259093      -0.34562728      -0.04497492       0.00737509
Ti       1.88813848       1.86613577       1.81610365      -0.30834368       0.20322016      -0.20867020
Ti      -0.06183453       0.06985551       3.02504031       0.04986035       0.25840321       0.16663548
Ti       1.94813333       1.37916480       4.75694122      -0.32941058       0.33947694       0.02855957
Ti       0.20674066       3.47525136      -0.33937025      -0.34822285      -0.41954958       0.04370292
Ti       1.32430524       4.79380984       1.69440671       0.17605101       0.02814625      -0.16711493
Ti       0.09282758       3.07391001       3.15582009      -0.25800785       0.13387884       0.39647371
Ti       1.41056627       5.32588342       4.85911484       0.14057283      -0.24845977      -0.10570878
Ti       3.25145691       0.12444335       0.37748158      -0.13574627      -0.22294235      -0.87218499
Ti       4.66542590       1.67226357       1.80953513       0.41442400       0.56158817      -0.34151545
Ti       3.25675991      -0.16050612       2.81426264      -0.13876618      -0.26483992       0.82825106
Ti       4.53206233       1.56630082       4.74319367       0.53524804       0.02818814       0.22065642
Ti       2.93618402       3.55014027      -0.23738959       0.36166337      -0.04668511       0.15628526
Ti       4.99683280       5.00588075       1.54048937       0.16907597      -0.51879144      -0.23625417
Ti       3.32724267       3.41092126       3.49510708      -0.10705355       0.27566606      -0.13878554
Ti       4.84822996       5.20985720       4.82961881       0.12428281      -0.06232473       0.22229430
16
Lattice="6.5 0.0 0.0 0.0 6.5 0.0 0.0 0.0 6.5" Properties=species:S:1:pos:R:3:forces:R:3 group=Ti_md600_b0 composition=Ti energy=-124.08614349365234 pbc="T T T"
Ti      -0.02361931       0.11092849       0.02703204       0.04554019       0.20050846       0.06295624
Ti       1.84891239       1.71700939       1.53028323      -0.50733399       0.16600348      -0.41855267
Ti      -0.04679668       0.73306672       3.37110645       0.06170867      -0.42269307      -0.14899868
Ti       1.63838124       1.62948874       4.86428251       0.15435959       0.18195011       0.19891483
Ti      -0.06395346       3.09157283      -0.13263568      -0.05580640       0.23298359      -0.04911024
Ti       1.57840647       4.97276977       1.35036778      -0.18506016       0.06835174       0.06427577
Ti      -0.01648884       3.57193754       3.34645362       0.04528472      -0.32450351      -0.04993391
Ti       1.56222971       5.02307499       4.72508963       0.01905850       0.18060000       0.18778601
Ti       3.65484440      -0.07516453       0.18252394      -0.43921763       0.02868024      -0.20535365
Ti       4.66185133       1.87540523       1.55642579       0.48803967       0.21333341      -0.05738379
Ti       3.12801535       0.35349884       3.00678248      -0.12855467      -0.76591593       0.21914500
Ti       4.37106499       1.74828174       4.54047372       0.39790630       0.27352500       0.41028160
Ti       3.31815703       3.43927273      -0.22915526      -0.04553437       0.10951068       0.10684353
Ti       5.11636302       5.21728244       2.12716431       0.01162427      -0.10554354      -0.37461597
Ti       2.99505748       3.55936410       2.81482530       0.12811390       0.16993313       0.42267233
Ti       4.94666770       5.23975804       4.96781265       0.00987129      -0.20672376      -0.36892641
16
Lattice="6.5 0.0 0.0 0.0 6.5 0.0 0.0 0.0 6.5" Properties=species:S:1:pos:R:3:forces:R:3 group=Ti_md600_b0 composition=Ti energy=-124.13798522949219 pbc="T T T"
Ti      -0.00398468       0.01553323       0.05754297      -0.29123637       0.02374600      -0.48227778
Ti       1.39691923       1.69998157       1.15698542       0.20811330       0.22909176       0.32764089
Ti      -0.18410526       0.31630360       3.71796178       0.06003100      -0.10268126      -0.44140846
Ti       1.91838730       1.88137796       4.89601853      -0.34199229      -0.10318113       0.42722288
Ti      -0.00452137       3.46783986      -0.48260606       0.12682794       0.28952453       0.39042929
Ti       1.36859541       5.14733818       1.72427604       0.12247670      -0.04979677       0.07006605
Ti       0.18051265       3.03610181       3.18584344      -0.02405089       0.41430366      -0.06651146
Ti       1.74962787       5.31232584       4.70831074       0.03476098      -0.26908994       0.09861562
Ti       3.39700503       0.38532153      -0.02459295       0.17080282      -0.42524141       0.12947074
Ti       5.08482895       1.91443367       1.56126259      -0.29496300      -0.00953521      -0.05614296
Ti       2.94071959       0.49963899       3.11056899       0.44282782      -0.27851719      -0.26019767
Ti       4.80393273       2.17729307       4.80002437      -0.13284445      -0.39135447       0.27878606
Ti       3.13424535       3.79027287       0.21871256       0.10470135      -0.08192591      -0.15306532
Ti       5.08943531       5.01606694       1.57661821      -0.19720195      -0.04945816       0.24477382
Ti       3.03758463       3.21021425       3.20795458       0.06813204       0.47527528      -0.66772652
Ti       4.70583397       4.86167305       4.47851387      -0.05638493       0.32884029       0.16032456
16
Lattice="6.5 0.0 0.0 0.0 6.5 0.0 0.0 0.0 6.5" Properties=species:S:1:pos:R:3:forces:R:3 group=Ti_md1400_b1 composition=Ti energy=-123.63734436035156 pbc="T T T"
Ti       0.01771559      -0.31532760       0.75815067       0.06691367       0.78583455      -0.49061200
Ti       1.47989610       2.10378158       2.09733903       0.55581021      -0.71996540      -0.05892356
Ti      -0.04996038       0.27213920       3.32149293       0.36821273      -0.25303465       0.03918096
Ti       1.93136399       1.77284581       5.37655920      -0.37807435      -0.15393384      -0.62344581
Ti      -0.01451819       2.70166191       0.10590021      -0.33587721       0.59404600       0.15223972
Ti       1.37805980       4.42897190       1.90634045       0.36931434       0.72141284      -0.08896174
Ti      -0.17967421       3.25676709       4.00020926       0.29256684       0.16624366      -0.05850392
Ti       1.52442149       5.23525354       5.01380194       0.11727041      -0.11536954       0.16931276
Ti       3.05266425       0.24767044       0.29503635       0.25188830      -0.48612353       0.59704483
Ti       4.86084316       2.04381678       2.21442532      -0.23496220      -0.44945526      -0.75667620
Ti       3.20960611       0.12459661       3.04941370      -0.25587046      -0.23083970       0.32877883
Ti       4.75763989       1.33775584       5.05441259      -0.08796905       0.37707889       0.19328603
Ti       3.62494061       3.67516158      -0.31013109      -0.21506736      -0.23182425       1.03180480
Ti       4.85874718       4.62090449       1.98288014       0.10193193       0.42561722      -0.31421900
Ti       3.35612891       3.58705023       3.73757942      -0.37286350      -0.08834703      -0.17947343
Ti       5.16833061       5.37534695       5.12405766      -0.24322398      -0.34133995       0.05916782
16
Lattice="6.5 0.0 0.0 0.0 6.5 0.0 0.0 0.0 6.5" Properties=species:S:1:pos:R:3:forces:R:3 group=Ti_md1400_b1 composition=Ti energy=-123.70272827148438 pbc="T T T"
Ti      -0.54361632       0.13854312       0.73395021       0.86632293       0.15661347       0.22199573
Ti       1.80249664       1.72556252       2.28873135       0.06839468      -0.39756107      -0.09077087
Ti      -0.10951516       0.53362414       4.44495526       0.49004880      -0.76165092      -0.65714788
Ti       1.54835339       2.06828237       5.77210738       0.51594543      -0.24778077       0.19260328
Ti      -0.02858826       3.27432464       0.90645215       0.00064343       0.42612705      -0.06660689
Ti       1.63260895       5.41026436       2.34035028      -0.33297959       0.04019614      -0.19742464
Ti       0.51841627       3.29236262       3.80211436      -0.73456556       0.44205368      -0.11010256
Ti       1.45261801       5.10683360       5.43741253      -0.28154686      -0.22061923       0.76048350
Ti       3.45433405       0.04316342       0.43861232      -0.62173283       0.54647195       0.93173808
Ti       4.98773359       1.89234469       2.53141942      -0.39636889      -0.15070520      -0.13214120
Ti       3.25559850      -0.01383473       4.45877360      -0.55351877       1.17508459      -0.83895731
Ti       4.97230803       1.97992029       5.26007159      -0.58438313       0.64323908       0.68717796
Ti       3.35372435       3.43652894       0.89833357      -0.09705645       0.10306902      -0.11215087
Ti       4.68703135       5.28175739       2.80602210       0.87981945      -0.01582479      -0.80510008
Ti       3.14944564       3.78706695       3.76746255      -0.03052360      -0.92411882       0.31062716
Ti       4.80394613       4.93746933       5.65056127       0.81150097      -0.81459433      -0.09422346
16
Lattice="6.5 0.0 0.0 0.0 6.5 0.0 0.0 0.0 6.5" Properties=species:S:1:pos:R:3:forces:R:3 group=Ti_md1400_b1 composition=Ti energy=-123.70858764648438 pbc="T T T"
Ti      -0.69641726      -0.02968362       1.01729385       1.21497333       0.52624571      -0.39124909
Ti       1.83157040       1.61876390       2.05209943      -0.37821561       0.12700003       0.63541639
Ti       0.07642274       0.29951786       4.45622404      -0.33967331       0.18982123      -0.39875525
Ti       1.53560005       2.16236902       5.87858483       0.36747819      -0.36295995      -0.03060829
Ti      -0.09309137       3.24414122       0.92839215       0.01583120       0.52893418       0.36242381
Ti       1.68795302       5.58108023       2.33693275      -0.20345595      -0.60055846      -0.08337895
Ti       0.38612354       3.30559952       4.05225752      -0.52413070       0.31189942      -0.63486135
Ti       1.63777218       5.24461818       5.28966543      -0.21629170      -0.61041409       1.12358797
Ti       3.33683305       0.31036508       0.40408789      -0.15010388      -0.10251152       0.54636699
Ti       4.89318650       1.81482574       2.85339190       0.00119281       0.07566140      -0.42799115
Ti       3.33573259       0.18868129       4.40761410      -0.02353793       0.62237853      -0.64356256
Ti       4.85182696       2.18576266       5.51787331       0.01536484      -0.19543675       0.20083261
Ti       3.49086725       3.46786196       0.99375206      -0.26235884       0.26830631      -0.06627847
Ti       4.73413580       5.38017181       2.68882431       0.18268286      -0.60674185       0.08722159
Ti       3.01409280       3.53710757       3.74917354       0.21026102      -0.08223899       0.17145661
Ti       4.91009699       4.84159374       5.74359885       0.08998382      -0.08938511      -0.45062074
16
Lattice="6.5 0.0 0.0 0.0 6.5 0.0 0.0 0.0 6.5" Properties=species:S:1:pos:R:3:forces:R:3 group=Ti_md1400_b1 composition=Ti energy=-123.60031127929688 pbc="T T T"
Ti       0.31863376       0.26322226       0.72206128      -0.59317064      -0.04513549       0.92565006
Ti       1.25082407       2.18466971       2.60648421       0.51436466      -0.12249823       0.00068452
Ti      -0.33254930       0.35376127       4.07129856       0.42144290      -0.06012583       0.11248612
Ti       1.86142039       1.70871249       5.92653091      -0.29613838      -0.00621223      -0.19207913
Ti      -0.20971107       3.85927887       0.81148729       0.04124784      -0.00967762       0.65417337
Ti       1.62920156       5.35035964       3.01909936      -0.22353390      -0.48573136      -0.61573756
Ti       0.17296612       3.60656517       4.61722351      -0.33401161       0.07280689      -0.55683708
Ti       1.63433291       5.13170746       6.09741595       0.19692135       0.37333214      -0.43851033
Ti       3.50282163       0.18489961       1.13330770      -0.42088479       0.40751940       0.19339955
Ti       5.05419555       1.99022468       2.36825343      -0.29936007       0.19640183       0.35891795
Ti       3.09321906       0.20025356       4.13870399       0.13392633       0.80064952       0.07248396
Ti       5.35131053       1.92775225       5.97123607      -0.74106139      -0.16500188      -0.07928152
Ti       3.12215097       3.47490209       0.71052343       0.35360342      -0.12535085       1.33591771
Ti       4.55242561       5.10393544       2.89132284       0.53932083      -0.54175669      -0.39998022
Ti       3.33931206       3.44659730       4.76410521       0.05450924      -0.24333906      -1.24466193
Ti       4.57512192       5.41683403       5.90405927       0.65282452      -0.04588057      -0.12662534
16
Lattice="7.14 0.0 0.0 0.0 7.14 0.0 0.0 0.0 7.14" Properties=species:S:1:pos:R:3:forces:R:3 group=Zr_rattle05_b0 composition=Zr energy=-136.14202880859375 pbc="T T T"
Zr      -0.04190250       0.06619173      -0.02440286       0.19297120      -0.15414734       0.02220568
Zr       1.80917145       1.85524287       1.85137463      -0.16741054      -0.09730435      -0.13175420
Zr       0.00804421      -0.03778879       3.55844141       0.05623087       0.11776436       0.10054263
Zr       1.84720670       1.76170747       5.37898600      -0.18382432      -0.03247464      -0.08979714
Zr      -0.02911297       3.60876297       0.00191130       0.08182324      -0.03238977      -0.03433619
Zr       1.84116799       5.39270406       1.78346793      -0.22998255      -0.12869230      -0.04183038
Zr      -0.02216323       3.62931279       3.58315541       0.03897822      -0.14396857       0.06113039
Zr       1.87377706       5.30546367       5.38754684      -0.21156317       0.16404665      -0.08415742
Zr       3.54438314      -0.01887113       0.09298064       0.02604851       0.06958179      -0.20831844
Zr       5.38954958       1.73052342       1.78763909      -0.01376329       0.19414704       0.06353425
Zr       3.57028512      -0.04769695       3.48760560       0.01979837       0.15187922       0.24888717
Zr       5.32839516       1.79095968       5.45216807       0.04863097      -0.03432338      -0.29428077
Zr       3.52886608       3.54526911      -0.07865802       0.14126566       0.03099252       0.22522633
Zr       5.35847192       5.34097306       1.77054815       0.04466418      -0.05986810      -0.04706204
Zr       3.54726654       3.53548458       3.52140054       0.14890124       0.02322989       0.10003035
Zr       5.33777272       5.40376980       5.30801431       0.00723139      -0.06847303       0.10997976
16
Lattice="7.14 0.0 0.0 0.0 7.14 0.0 0.0 0.0 7.14" Properties=species:S:1:pos:R:3:forces:R:3 group=Zr_rattle05_b0 composition=Zr energy=-136.1129608154297 pbc="T T T"
Zr       0.06612143       0.01955423      -0.00079888      -0.22377308       0.00104593      -0.12539935
Zr       1.68641814       1.83785672       1.75264025       0.17112952       0.07619315       0.14069398
Zr       0.04899824      -0.01818501       3.54674503      -0.23930083       0.26371062       0.07488085
Zr       1.83766891       1.82835809       5.39915739      -0.01383695       0.03068072      -0.17391242
Zr      -0.01531263       3.58822539      -0.10519489      -0.00738782       0.11648329       0.07462206
Zr       1.62741093       5.43018723       1.73312879       0.24967727      -0.27681592       0.07575998
Zr      -0.06277419       3.57846550       3.57070384       0.04219067      -0.06577043       0.05078819
Zr       1.81629764       5.45777521       5.22589321      -0.06426391      -0.24140778       0.28304553
Zr       3.52511739      -0.00960867       0.07663418       0.04986018       0.05057178      -0.11922282
Zr       5.32784265       1.78584027       1.73920473       0.03430709       0.01541707       0.14398652
Zr       3.54331874      -0.02543220       3.55093914       0.07073173       0.29624027      -0.07538027
Zr       5.35479780       1.79995194       5.46393859      -0.09765051      -0.04562044      -0.26597437
Zr       3.56821884       3.61308654       0.06855125      -0.08978795       0.05075742      -0.17293680
Zr       5.30864233       5.34415921       1.78026594       0.13429122       0.07487510      -0.04928694
Zr       3.57262452       3.64694303       3.56019218      -0.05498337      -0.21494776      -0.00190209
Zr       5.32632784       5.46922094       5.30690345       0.03879681      -0.13141292       0.14023803
16
Lattice="7.14 0.0 0.0 0.0 7.14 0.0 0.0 0.0 7.14" Properties=species:S:1:pos:R:3:forces:R:3 group=Zr_rattle05_b0 composition=Zr energy=-136.127197265625 pbc="T T T"
Zr      -0.01873966      -0.05083791       0.02584977       0.09556791       0.17426789      -0.00450316
Zr       1.79216439       1.80285192       1.83039269      -0.11156715       0.13634819      -0.12189283
Zr       0.03405814       0.06134508       3.56463076      -0.01468939      -0.05164266       0.00198896
Zr       1.80301065       1.76776852       5.41504966      -0.05070736       0.02563143       0.03431059
Zr      -0.07407257       3.62857064       0.00400376       0.26284224      -0.11184458       0.10823442
Zr       1.79971396       5.40073098       1.76587701      -0.02005634      -0.18867484       0.06513842
Zr      -0.00817654       3.59965997       3.70620458       0.00328286      -0.07172906      -0.33567137
Zr       1.81348850       5.29533127       5.32799610       0.03060079       0.20341355       0.15316513
Zr       3.52887282       0.04649624       0.04905688       0.08634391      -0.11135714      -0.12560520
Zr       5.30893946       1.89829694       1.77804625       0.18483815      -0.17119440       0.17303856
Zr       3.58594381       0.02478933       3.56039139      -0.02646530      -0.00995395       0.08758101
Zr       5.39470756       1.73123187       5.40139389      -0.06499067       0.03705627      -0.10812739
Zr       3.72050824       3.56903083      -0.00315102      -0.35818332       0.11528228       0.00454526
Zr       5.35519507       5.45568914       1.78246080      -0.01554315      -0.15967360       0.16313513
Zr       3.48932552       3.55332807       3.62580085       0.22585180       0.06327885      -0.08619669
Zr       5.42158794       5.36512158       5.32450879      -0.22712493       0.12079179      -0.00914090
16
Lattice="7.14 0.0 0.0 0.0 7.14 0.0 0.0 0.0 7.14" Properties=species:S:1:pos:R:3:forces:R:3 group=Zr_rattle05_b0 composition=Zr energy=-136.14044189453125 pbc="T T T"
Zr       0.01614712      -0.14824266       0.00188279      -0.06451916       0.37731010      -0.07116723
Zr       1.74504026       1.75434586       1.72701703       0.02212796       0.21095961       0.09450985
Zr       0.02780340       0.06196351       3.51763180      -0.15873332      -0.09591009       0.15430613
Zr       1.81699017       1.82090647       5.33396405      -0.08497854      -0.06473316       0.01297650
Zr       0.02382853       3.59937055      -0.06074764       0.04469939      -0.08267548       0.15057859
Zr       1.75972597       5.39260661       1.77326031       0.13034938      -0.19315070       0.07175012
Zr       0.00083849       3.58034889       3.63800959      -0.04528548       0.01662619      -0.17778584
Zr       1.77264066       5.36240849       5.32280508       0.15912774       0.01971372      -0.02199463
Zr       3.49787873       0.07573363       0.00806721       0.15273020      -0.19231798      -0.01220031
Zr       5.36767263       1.85793299       1.78453987       0.06835431      -0.15676355       0.02692131
Zr       3.56140301       0.04973193       3.55637232       0.09725100      -0.04934532       0.00664337
Zr       5.35794887       1.77482881       5.46517581       0.07599399      -0.08274041      -0.25995979
Zr       3.66285041       3.53069339      -0.00480323      -0.29422295       0.16991842       0.03672348
Zr       5.34434609       5.37705358       1.73156067      -0.02538401       0.00990136       0.19339138
Zr       3.58672868       3.59262798       3.55102551      -0.01142269      -0.01380703      -0.00237396
Zr       5.33722680       5.35073577       5.39797477      -0.06608783       0.12701437      -0.20231894
16
Lattice="7.14 0.0 0.0 0.0 7.14 0.0 0.0 0.0 7.14" Properties=species:S:1:pos:R:3:forces:R:3 group=Zr_rattle10_b1 composition=Zr energy=-135.6228790283203 pbc="T T T"
Zr       0.02457783      -0.12093820      -0.16245143      -0.11930034       0.34130344       0.97961468
Zr       1.75417224       1.77723333       1.70569123      -0.05760837      -0.03995132       0.25827178
Zr      -0.14791919       0.02656988       3.65562307       0.37221920       0.05653422      -0.82994926
Zr       1.60476506       1.78338550       5.37898158       0.46154812       0.03675160      -0.04836163
Zr       0.02232980       3.69261964       0.07958279      -0.07400090      -0.38778898      -0.33477253
Zr       1.84344496       5.19111026       1.84420563      -0.13252568       0.52216178       0.07973237
Zr       0.01372959       3.62905982       3.66072687       0.04560211      -0.23984754      -0.07970089
Zr       1.71871542       5.57626544       5.21792045       0.46301430      -0.39751783       0.11888257
Zr       3.51100191      -0.05215635       0.17702548       0.26436323       0.15402126      -0.30023083
Zr       5.40714775       1.93886855       1.96330338      -0.15831819      -0.25115111      -0.67442381
Zr       3.62327462       0.06668573       3.56859857      -0.16324042      -0.09377830      -0.12734140
Zr       5.36213159       1.65130720       5.38929787      -0.29186729       0.56528807       0.38792491
Zr       3.37088918       3.68735533      -0.17576231       0.49122086      -0.26123536       0.12991475
Zr       5.42972015       5.24624137       1.73688401      -0.33179516       0.25983244       0.13881317
Zr       3.55033562       3.56258562       3.61801962       0.01289825      -0.04239469       0.11676060
Zr       5.49605977       5.37165846       5.30762513      -0.78220969      -0.22222775       0.18486562
16
Lattice="7.14 0.0 0.0 0.0 7.14 0.0 0.0 0.0 7.14" Properties=species:S:1:pos:R:3:forces:R:3 group=Zr_rattle10_b1 composition=Zr energy=-135.7561492919922 pbc="T T T"
Zr      -0.05789590      -0.01388654      -0.11343576       0.22669941       0.21515401       0.35437560
Zr       1.87559784       1.99530561       1.75258780       0.06968457      -0.67436677       0.05876842
Zr       0.12501938       0.11328892       3.47208680      -0.10199587      -0.10354865       0.29025906
Zr       1.93084406       1.70672664       5.37394751      -0.36013758       0.41768974      -0.09267841
Zr      -0.01160955       3.37198528      -0.05504927      -0.09466588       0.42418158       0.09024707
Zr       1.66324009       5.35895752       1.90659077       0.22903931       0.22991806      -0.49914020
Zr      -0.03150309       3.52898254       3.47713451       0.00697497       0.17369121       0.36255041
Zr       1.66639503       5.34111084       5.40770632       0.11341164      -0.12590779       0.01637656
Zr       3.64058579       0.02006200      -0.15427751      -0.25706333      -0.07438602       0.73974156
Zr       5.44041495       1.73468361       1.91659345      -0.41956550       0.09666219      -0.35321328
Zr       3.67128497      -0.01688803       3.76242019      -0.36920911       0.03351377      -0.63564253
Zr       5.26583229       1.87269073       5.31404999       0.29455519       0.08936562       0.01253961
Zr       3.60697570       3.61026785       0.10007795       0.05396003       0.14331171      -0.19904789
Zr       5.27500716       5.47312962       1.83401150       0.27567461      -0.15664454      -0.15618902
Zr       3.52239718       3.74084800       3.57396115       0.14878021      -0.20993149       0.14392567
Zr       5.39192667       5.45949884       5.39332826       0.18385719      -0.47870246      -0.13287278
16
Lattice="7.14 0.0 0.0 0.0 7.14 0.0 0.0 0.0 7.14" Properties=species:S:1:pos:R:3:forces:R:3 group=Zr_rattle10_b1 composition=Zr energy=-135.7041473388672 pbc="T T T"
Zr      -0.02267917      -0.00440555      -0.11966436       0.14506808      -0.14024131       0.20812750
Zr       1.88691812       1.71073103       1.80289820      -0.31489730       0.23016161      -0.18134280
Zr      -0.09159200      -0.03055906       3.48342681      -0.17033514       0.19997102       0.19684747
Zr       1.72184857       1.70336571       5.27601814       0.27087820       0.07161702       0.06840225
Zr       0.23543537       3.56696320      -0.03504461      -0.21363704       0.00502926      -0.00979615
Zr       1.81949033       5.33415891       1.90522704      -0.28505623       0.03644997      -0.44495726
Zr      -0.13809868       3.54139036       3.69812164       0.24737073      -0.14372483      -0.24187279
Zr       1.75035144       5.39004706       5.24518554      -0.10683417       0.07913464       0.21756907
Zr       3.57277096      -0.02570422      -0.13650179      -0.01272577       0.00822595       0.34318417
Zr       5.44202654       1.89313661       1.67212772      -0.24400772      -0.17686440       0.21716495
Zr       3.44459138      -0.04587941       3.35106185       0.79981107       0.19637272       0.40391284
Zr       5.36945324       1.80383073       5.53742026      -0.31663725      -0.02129027      -0.49412081
Zr       3.55514189       3.72472902       0.08130784      -0.12002304      -0.35532925      -0.06706099
Zr       5.62938257       5.28003254       1.70263119      -0.61790425       0.11052521       0.06964318
Zr       3.41253819       3.64315788       3.64944970       0.48043385      -0.49394536      -0.26760504
Zr       5.17022307       5.22640035       5.32844470       0.45849615       0.39390802      -0.01809555
16
Lattice="7.14 0.0 0.0 0.0 7.14 0.0 0.0 0.0 7.14" Properties=species:S:1:pos:R:3:forces:R:3 group=Zr_rattle10_b1 composition=Zr energy=-135.4280242919922 pbc="T T T"
Zr      -0.30439587       0.00814146       0.12628640       0.71186513      -0.14602377      -0.24446221
Zr       1.56070674       1.76740101       1.89437312       0.44995770      -0.11568894      -0.31622437
Zr      -0.01850532       0.05748636       3.66319439      -0.21833763       0.11547710      -0.26549065
Zr       1.71137521       1.71006938       5.47330524       0.20119943      -0.00972340      -0.04899658
Zr       0.11901741       3.56034184      -0.04767390      -0.53999090       0.09702370       0.25275299
Zr       1.82765518       5.26084112       1.64515456      -0.20389366       0.68791974       0.20849597
Zr       0.18725492       3.67819859       3.75436625      -0.38866419      -0.55476499      -0.59520513
Zr       1.54981860       5.47598907       5.27407298       0.97949296       0.11558066       0.60612690
Zr       3.74785380       0.16915716      -0.10479245      -0.76698834      -0.73720586       0.35760561
Zr       5.31246583       1.89686590       1.91036703       0.18655398       0.13814816       0.10684955
Zr       3.51404974      -0.00209962       3.46057055      -0.01259369       0.07317613       0.25213662
Zr       5.25414243       1.80338797       5.53209610       0.26610476       0.34749678      -0.74726677
Zr       3.52776322       3.58046331       0.13955457       0.11683794       0.13251898      -0.48201844
Zr       5.38433012       5.43185531       1.84213543      -0.04456184      -0.43697870      -0.07591143
Zr       3.51440046       3.56181498       3.56492206      -0.17755875      -0.03082490       0.19562809
Zr       5.41192678       5.21401471       5.09095612      -0.55942279       0.32386905       0.79597968
16
Lattice="7.14 0.0 0.0 0.0 7.14 0.0 0.0 0.0 7.14" Properties=species:S:1:pos:R:3:forces:R:3 group=Zr_rattle18_b2 composition=Zr energy=-134.69091796875 pbc="T T T"
Zr      -0.01922592      -0.00026245      -0.11211165      -0.32444111       0.46370122       0.26816770
Zr       1.73638262       1.73549895       1.79795621      -0.21861041       0.14753783       0.08898002
Zr      -0.11101358      -0.12944981       3.46044444       0.81216753      -0.20427594       0.80447376
Zr       1.83247252       1.84413709       5.38965444      -0.15654783      -0.63942111      -0.62614620
Zr       0.10133265       3.51555737      -0.11181779      -0.44184265      -0.57162905       0.32612106
Zr       1.86121483       5.13375800       1.99678584      -0.61954886       0.11896987      -0.72104669
Zr      -0.09564947       3.52036768       3.59721069       0.37609917       0.02772883       0.16023409
Zr       1.71004898       5.42173083       5.56770482       0.24130410      -0.13468370      -0.89375162
Zr       3.31903040      -0.08816145       0.32693352       0.96020609       0.10868253      -0.88383198
Zr       5.35133922       1.49813323       2.23260568       0.04463500       0.73799801      -2.11188221
Zr       3.51957956      -0.22285375       3.46121364      -0.16216671      -0.12185533       0.76843232
Zr       5.12082697       1.82052667       5.19080573       0.46930993      -0.74459225       0.79210722
Zr       3.60906869       3.56763875      -0.31515518      -0.02732512      -0.18843937       1.43344617
Zr       5.65026250       5.21962606       1.55905661      -0.84318823      -0.02677318       0.30565205
Zr       3.56609202       3.47534232       3.27531902       0.09376976       0.43647742       0.62272948
Zr       5.35436731       5.24206133       5.38650621      -0.20382084       0.59057462      -0.33368540
16
Lattice="7.14 0.0 0.0 0.0 7.14 0.0 0.0 0.0 7.14" Properties=species:S:1:pos:R:3:forces:R:3 group=Zr_rattle18_b2 composition=Zr energy=-134.5509796142578 pbc="T T T"
Zr       0.24103957       0.04539945       0.08330115      -0.40546978       0.15385145      -0.82141536
Zr       1.80682965       1.56637802       1.69101730       0.38237727       0.99700248       0.50931865
Zr      -0.04500800       0.25508428       3.34627262      -0.07464325      -0.62046003       1.14429867
Zr       2.00827611       1.65766587       5.25992020      -0.21117568      -0.24584578      -0.12693511
Zr       0.40624424       3.59907570      -0.23454004      -1.06728590      -0.44958794       0.95069790
Zr       1.78224776       5.24150328       1.89820330      -0.28569734       0.50288486      -0.49823964
Zr      -0.07467323       3.83584258       3.74423003      -0.39711985      -0.90467668      -1.12190342
Zr       1.61272411       5.26457870       5.18982346       0.98608279       1.60622001       0.49480510
Zr       3.80438202      -0.02911292       0.19092985      -0.87080020       0.43240917      -0.95259798
Zr       5.41321863       1.87579229       1.87932624      -0.12113661       0.83010757      -0.46903798
Zr       3.73409289      -0.16235019       3.41888364      -0.04892090       0.35343182       0.63578671
Zr       5.30244200       2.17027483       5.43859084       0.12128621      -0.95667231      -0.09600402
Zr       3.44446075       3.61945193       0.05605139       0.43811631      -0.00613609      -0.03186458
Zr       5.44463414       5.49836299       1.45728145       0.49522394      -1.24424803       1.03276455
Zr       3.30190785       3.70329608       3.55073702       1.19222057      -0.47993016      -0.13002479
Zr       5.39347838       5.49358371       5.49260707      -0.13305755       0.03164990      -0.51964873
16
Lattice="7.14 0.0 0.0 0.0 7.14 0.0 0.0 0.0 7.14" Properties=species:S:1:pos:R:3:forces:R:3 group=Zr_rattle18_b2 composition=Zr energy=-133.14122009277344 pbc="T T T"
Zr      -0.25139355       0.02511315       0.35108804       1.71939492      -1.92648149      -2.56286645
Zr       1.90775787       1.76003489       1.71994774       0.47493660       0.39657211       0.11076735
Zr       0.12124162      -0.02081071       3.63410588      -1.16410911       0.03316298       0.51334792
Zr       1.70220463       2.06578585       5.10376090       0.15235278      -0.75524724       1.00303054
Zr       0.12292396       3.58239577       0.27408469      -0.03383082       1.01015806      -1.41660368
Zr       1.70879805       5.40548708       2.02399661      -0.30414999      -0.63882506      -1.67782784
Zr      -0.01537597       3.40957787       3.56155230      -0.53999710       1.06433403       0.26609474
Zr       1.85021357       5.38434994       5.40001264      -1.01679957      -0.24235749       0.82790446
Zr       3.50495158       0.11505737      -0.24364054      -0.42154682      -0.62044388       1.01130772
Zr       5.81163723       1.78038737       1.60841838      -3.44748521       0.86333907       2.04427409
Zr       3.26592173      -0.14571844       3.44223902       1.54435968       1.85047531       0.65272808
Zr       5.10078862       1.77509352       5.46420218       1.69239163      -0.36285412      -1.68195510
Zr       3.75174682       3.36445506      -0.16438565      -0.94511002       1.33750200       1.28962183
Zr       5.02227670       5.42458876       1.85365710       1.35099900       0.05472642      -0.89351255
Zr       3.63143398       3.95050628       3.56054359      -0.19254720      -2.58679819      -0.22057253
Zr       5.25786129       5.32439375       5.28617203       1.13114154       0.52273762       0.73426044
16
Lattice="7.14 0.0 0.0 0.0 7.14 0.0 0.0 0.0 7.14" Properties=species:S:1:pos:R:3:forces:R:3 group=Zr_rattle18_b2 composition=Zr energy=-134.27578735351562 pbc="T T T"
Zr       0.23355809      -0.27856434       0.11422256      -0.55353302       0.66979831      -0.29286087
Zr       1.85897292       1.83120655       1.83405426       0.27311918      -0.10533772      -0.82594657
Zr       0.24486963       0.07493722       3.42233751      -0.82011998      -0.01683664       0.33382127
Zr       1.55448444       1.89115604       5.12077820       1.61191142      -0.96643919       1.34814632
Zr       0.14150616       3.57222757      -0.24208979       0.12963295       0.38043857       1.54805076
Zr       1.99358072       5.27584137       1.93271983       0.26857102       0.02485436      -0.48045352
Zr       0.21347320       3.48385109       3.65248575      -1.26400983       0.57148492      -1.21700287
Zr       1.74434212       5.44819009       5.10610520       0.78069639      -0.28315100       0.56532037
Zr       3.61664267       0.13336381      -0.22956098      -0.38358068      -0.59630108       0.71488059
Zr       5.21386408       1.79750940       1.76540077       1.23364925      -0.31895971      -0.27325225
Zr       3.93481639      -0.03146424       3.75620201      -1.09504223       0.70881641      -0.11975627
Zr       5.38740839       1.89343559       5.62156820       0.70802462      -0.80820656      -0.70025730
Zr       3.87624528       3.70295283      -0.00101681      -1.22644329       0.24744287       0.20902030
Zr       5.39525714       5.54474847       2.20011921       0.28798240      -0.82571113      -1.51530623
Zr       3.82234259       3.29007836       3.53573785      -0.52046490       0.66997945       0.46861959
Zr       5.35567944       5.19878195       5.30027138       0.56960636       0.64812827       0.23697692
54
Lattice="10.709999999999999 0.0 0.0 0.0 10.709999999999999 0.0 0.0 0.0 10.709999999999999" Properties=species:S:1:pos:R:3:forces:R:3 group=Zr_rattle10_b9 composition=Zr energy=-457.7855224609375 pbc="T T T"
Zr      -0.09933599      -0.04705582      -0.08176581       0.28108487       0.18832509       0.35993764
Zr       1.71091774       1.70004786       1.77624772       0.22062102      -0.29491651       0.10545214
Zr      -0.05949531       0.07830315       3.62213214       0.17424758      -0.12286346      -0.35931218
Zr       1.64921078       1.79224492       5.44515443       0.75303024       0.02853064      -0.54515135
Zr      -0.06481286       0.05987383       7.04329131       0.20815846      -0.34928736       0.40153128
Zr       1.76908884       1.86314317       8.87865158       0.23140782      -0.31194919       0.24162993
Zr       0.04077709       3.45324489       0.05683395      -0.25087920       0.30379286      -0.21176426
Zr       1.93594371       5.11392631       1.69127232      -0.68565822       0.91489697      -0.07253829
Zr      -0.02763622       3.57546705       3.46275324       0.21891683       0.09240855       0.16566148
Zr       1.77701401       5.43053963       5.46492688       0.04924474      -0.36001766      -0.55350292
Zr       0.03263391       3.50419170       7.11684884       0.08661026       0.42892230       0.43416706
Zr       1.88784740       5.21978243       8.90733733      -0.42003873       0.27656767       0.33194894
Zr      -0.00723914       7.24281598      -0.25336515       0.15894383      -0.54470390       0.63150704
Zr       1.75498528       8.78965042       1.73065711       0.05949637       0.34916300       0.18494399
Zr       0.09540852       7.11628408       3.53444729      -0.16103789      -0.20623036      -0.11905851
Zr       1.67236965       8.91595563       5.48487108       0.54055440       0.01604766      -0.34936887
Zr      -0.08743675       7.05490123       7.03534049       0.07791331       0.33505532       0.54245877
Zr       1.79515452       8.94944484       8.97034585       0.00226250      -0.03581423      -0.55469114
Zr       3.51128916      -0.06798325      -0.07877558       0.22558656       0.19173920       0.19316025
Zr       5.23320091       1.83247108       1.89176773       0.64104658      -0.25155658      -0.30293444
Zr       3.88986835      -0.08181184       3.53085986      -1.35030222       0.26551029       0.27627760
Zr       5.39550979       1.89802495       5.37353000      -0.26879117      -0.21155742      -0.27981496
Zr       3.63053316       0.03737107       7.10435106      -0.22459361       0.04590082      -0.06053463
Zr       5.38405245       1.83741560       8.91671095      -0.10962334      -0.26119739       0.10648684
Zr       3.70819117       3.55221077       0.21181807      -0.13709228      -0.20104009      -0.77975053
Zr       5.36623521       5.43699180       1.86775338       0.38362432       0.03978997      -0.23779388
Zr       3.56185850       3.61798774       3.37950530      -0.08706640      -0.23056638       1.06292331
Zr       5.32889535       5.35732510       5.44648623       0.34543866      -0.07190535      -0.43933561
Zr       3.60060165       3.64507775       7.21964472      -0.07935642      -0.53466123      -0.34193322
Zr       5.31391338       5.27743816       8.93154415       0.44467711       0.21826944       0.17069916
Zr       3.57673897       7.17633164      -0.11793327       0.15867200      -0.03462252       0.24902366
Zr       5.39923025       9.01256862       1.89150256      -0.04720643      -0.51439732      -0.73350775
Zr       3.62455509       7.04196983       3.47043353      -0.32696956       0.25353611       0.24158610
Zr       5.28987606       8.88103573       5.27585104      -0.07612529      -0.18067384       0.26659295
Zr       3.63268263       6.89387789       7.10916839      -0.23415378       0.85267216       0.14746001
Zr       5.36751722       8.93802131       8.71740040      -0.27546418       0.02370040       0.58345354
Zr       7.12423269       0.00295948      -0.08254236      -0.18426591       0.15228593       0.23307808
Zr       8.83009266       1.84188930       1.77902845       0.05076727      -0.36151516      -0.01779455
Zr       7.08774154      -0.14212597       3.56657976       0.42418376       0.63461214       0.12764746
Zr       8.97191368       1.97660851       5.49763030      -0.21993971      -0.65620100      -0.61842048
Zr       7.12523129      -0.07978627       7.05529301       0.08616072       0.31530163       0.00892198
Zr       9.04442034       1.75204011       8.80011619      -0.42483115       0.15445185       0.41006064
Zr       7.13232646       3.54763053      -0.00992315       0.00473240      -0.03321964      -0.02572485
Zr       8.79595382       5.30410011       1.79149526       0.44991857       0.30216476      -0.19535269
Zr       7.28437916       3.59954050       3.60902146      -0.47778821       0.03247447      -0.02197701
Zr       9.06419812       5.19488567       5.51512629      -0.47424877       0.58860469      -0.35796157
Zr       7.08752456       3.43236890       7.06961569       0.14679541       0.53376102       0.49363124
Zr       8.87910604       5.42617044       8.99891094       0.02186228      -0.38762718      -0.30139148
Zr       7.20709904       7.17956998      -0.04805056      -0.43925405      -0.00820431       0.14410248
Zr       8.87821661       8.87521321       1.80348132       0.29221976       0.10024418      -0.07319773
Zr       7.25326888       7.18766155       3.63614132      -0.04387209      -0.31554794       0.13350251
Zr       9.05677436       9.03355909       5.27443463      -0.22668234      -0.34203213       0.13548535
Zr       7.06348215       7.37899501       7.15931695       0.48737246      -0.70858097      -0.19830665
Zr       8.91469151       9.00197374       9.06604045      -0.00030862      -0.10783955      -0.63221192
54
Lattice="10.709999999999999 0.0 0.0 0.0 10.709999999999999 0.0 0.0 0.0 10.709999999999999" Properties=species:S:1:pos:R:3:forces:R:3 group=Zr_rattle10_b9 composition=Zr energy=-458.2923583984375 pbc="T T T"
Zr      -0.07939503      -0.25699024      -0.04290972       0.02428930       0.87332696       0.22721560
Zr       1.85057522       1.87265652       1.80008033      -0.28101623      -0.39809287       0.12262824
Zr      -0.04639196       0.21693225       3.65949978       0.20635065      -0.40462741      -0.37485155
Zr       1.84624467       1.83425506       5.27624714      -0.11746317      -0.08432508       0.17468530
Zr       0.09931883      -0.21929623       7.11041152      -0.08460253       0.71756512       0.12202036
Zr       1.78473207       1.98993349       9.00448862      -0.15903772      -0.75015849      -0.20096965
Zr      -0.10459139       3.51659223       0.08308048       0.30975810       0.01539514      -0.24594940
Zr       1.70561269       5.36143222       1.85481303       0.01736379       0.16125892      -0.17514771
Zr      -0.03208473       3.55685175       3.55405410      -0.03975546       0.21580854       0.29226685
Zr       1.93252439       5.36372778       5.38245723      -0.41559762       0.07110365       0.17455444
Zr      -0.00885074       3.42495349       7.14801324       0.01747864       0.36529478      -0.24938577
Zr       1.72450953       5.38300653       8.94588324       0.13000192      -0.09016614      -0.14178835
Zr      -0.05196448       7.11817139      -0.05635705       0.18049271       0.07416444       0.16128300
Zr       1.79644611       8.86500006       1.67992032      -0.08563450       0.02346988       0.43917423
Zr      -0.07549064       7.18698903       3.69857028       0.17777446      -0.08709650      -0.30902725
Zr       1.74050066       9.00217406       5.32756589       0.35704619      -0.30425569      -0.09206208
Zr      -0.04974384       7.17052228       7.19908396       0.26790577      -0.19500905      -0.28533295
Zr       1.76568707       9.10683977       9.02878303       0.36461356      -0.50583541      -0.33773270
Zr       3.53067141      -0.04148323       0.06425533       0.26845980       0.09055535      -0.22081016
Zr       5.25513161       1.83533533       1.72430840       0.17532003      -0.11832412       0.07574860
Zr       3.62022741      -0.00484153       3.57877110      -0.19437778      -0.08427387      -0.24170515
Zr       5.28387013       1.80913903       5.35585010       0.29281062      -0.08752993      -0.28760469
Zr       3.67724413       0.07066659       7.13074487      -0.39031589      -0.19463277       0.30097207
Zr       5.39140923       1.83129281       8.85847818      -0.09778073      -0.08990042       0.44331300
Zr       3.36945614       3.50262004       0.05251864       0.59643638       0.46749395      -0.19771104
Zr       5.33001916       5.34763806       1.74476208      -0.06119890       0.11333165      -0.20729168
Zr       3.66904415       3.70494425       3.61452148      -0.22418869      -0.21827091      -0.15028092
Zr       5.44561844       5.43640462       5.32594076      -0.40269947      -0.03902899       0.08917052
Zr       3.63961748       3.42079501       7.10375714      -0.36238471       0.45550153       0.09744687
Zr       5.31467675       5.30802362       8.70053471       0.04723543      -0.16205725       0.61305833
Zr       3.71466282       7.14318584      -0.11575312      -0.37356761      -0.10592754       0.16585068
Zr       5.37666390       8.80795931       1.81930316      -0.00445637       0.17305636      -0.01977015
Zr       3.54607601       7.03843588       3.46681350       0.00792570       0.43617818       0.28458709
Zr       5.31237270       9.10628311       5.39737232       0.13744897      -0.55508637      -0.20522605
Zr       3.65462776       7.17626263       7.25294715      -0.48592052       0.14171319      -0.39912271
Zr       5.52271331       8.74452191       8.82281021      -0.25447601       0.60680991       0.05022281
Zr       6.96240860      -0.01508980      -0.08060114       0.40969479       0.05178484       0.18638460
Zr       9.01133428       1.89524799       1.80898026      -0.40234217      -0.48207685      -0.12491018
Zr       7.08390779       0.04031457       3.49418110       0.03203580       0.08249956      -0.07296573
Zr       8.83858069       1.67460392       5.46731132       0.13859719       0.45704016      -0.32151932
Zr       7.21722204       0.06205477       7.10244345      -0.19020209      -0.23961535       0.21034575
Zr       8.99350798       1.74791707       8.88428643      -0.17806360      -0.06513755       0.20599152
Zr       7.11449225       3.62847387       0.10011498      -0.12337849      -0.28310430      -0.43992659
Zr       8.94060991       5.35982708       1.56228212      -0.02517453       0.25347084       0.69204700
Zr       7.02917170       3.67450314       3.49021848       0.40607145      -0.34485877       0.12935977
Zr       8.91228666       5.39191198       5.29956006       0.25295827      -0.36379874       0.20220439
Zr       7.00678569       3.53288985       7.08091894       0.59344524       0.08326185       0.05068235
Zr       8.96657754       5.27836336       8.97521220      -0.18250419      -0.05311759      -0.39965454
Zr       7.10922487       7.13587914      -0.09812225       0.10336927      -0.08540835       0.21229726
Zr       8.92291118       8.99895101       1.79991300      -0.14719564      -0.17279056       0.07605729
Zr       7.14488867       7.03112699       3.61843581       0.07419532       0.44287300      -0.28910831
Zr       8.93998695       9.05936075       5.26831166      -0.17955734      -0.31172323       0.05597989
Zr       7.15480533       7.03859491       7.02421496       0.22527231       0.27238598       0.07703983
Zr       8.96111276       8.81520458       8.84955560      -0.35145989       0.23088630       0.05726700
54
Lattice="10.709999999999999 0.0 0.0 0.0 10.709999999999999 0.0 0.0 0.0 10.709999999999999" Properties=species:S:1:pos:R:3:forces:R:3 group=Zr_rattle10_b9 composition=Zr energy=-457.75555419921875 pbc="T T T"
Zr      -0.02915758      -0.04031552       0.05331642       0.12185773       0.16547810      -0.11493868
Zr       1.91815100       1.66288033       1.75897439      -0.31519440       0.25837484      -0.11755700
Zr      -0.06861290       0.04724255       3.65581795      -0.05318842       0.07484300      -0.27238527
Zr       1.76127247       1.79728284       5.44468924      -0.05433458       0.24180129      -0.45853385
Zr       0.04707976       0.07702448       7.08242156      -0.15372458      -0.32390717       0.08984092
Zr       1.88902517       1.85184508       8.73585540      -0.06680912      -0.13705704       0.87269485
Zr      -0.12374782       3.59198605      -0.05544788       0.39092034      -0.31520110      -0.06923190
Zr       1.76325836       5.21448916       1.66523662      -0.10722284       0.37614092       0.22643246
Zr      -0.07230484       3.73471605       3.47021575       0.47210723      -0.54222751       0.15583609
Zr       1.87069407       5.22129608       5.29965177      -0.04152490       0.44044769       0.13010021
Zr       0.13322651       3.58869408       7.17857018      -0.42321092      -0.04284723       0.06199373
Zr       1.85706372       5.24031914       8.84545402      -0.43865833       0.45345402       0.28513560
Zr      -0.03840040       7.24790845       0.16019924       0.10749475      -0.21828672      -0.31614977
Zr       1.84345668       9.01107110       1.88390041      -0.06485534      -0.12124362      -0.17276648
Zr      -0.00055286       7.19183899       3.64881710       0.00080736      -0.37852016      -0.30458185
Zr       1.76340604       8.97137311       5.10902093       0.10759774      -0.34668085       0.80228353
Zr       0.01007995       7.17341827       7.00467168       0.32438278       0.05457820       0.48942617
Zr       1.89868864       8.99484503       9.04021660      -0.49521405      -0.09913185      -0.40510768
Zr       3.58807563      -0.06822739      -0.03529769       0.30402318       0.30463734       0.01978488
Zr       5.36927682       1.94457549       1.76067672      -0.23624565      -0.43327600      -0.01193623
Zr       3.57590263      -0.09362697       3.78015650       0.30918369       0.19309342      -0.75598079
Zr       5.27441796       1.68493573       5.32186424       0.31505847       0.26306558       0.17031170
Zr       3.46657448       0.10896922       7.03138311       0.38830149      -0.52127099       0.45988929
Zr       5.55188559       1.85409100       8.90905141      -0.60577202      -0.45321864      -0.27028877
Zr       3.71620501       3.82108983      -0.00413038      -0.37216312      -0.83323956       0.06759983
Zr       5.27944429       5.45175590       1.91241455       0.38027176      -0.26418135      -0.24575892
Zr       3.42406971       3.47679891       3.54430991       0.29681039       0.06574772      -0.00288058
Zr       5.35229502       5.33422099       5.25917732      -0.20368974       0.13127431      -0.02777398
Zr       3.73800580       3.66865630       7.23936415      -0.10128964      -0.27448431      -0.39535224
Zr       5.34517359       5.28595186       9.03217283       0.39394036       0.45878553      -0.37087464
Zr       3.45721242       7.14386127       0.00069391       0.15317744       0.13609496       0.15323323
Zr       5.54687233       8.89400624       1.72978690      -0.57413739       0.26757628       0.23451100
Zr       3.67265384       7.07415141       3.53279708      -0.37141913       0.28760093       0.06763601
Zr       5.39271198       8.86354562       5.43399479      -0.14466152       0.23561096      -0.27697971
Zr       3.61563295       7.10471694       7.32754810      -0.32241732       0.12631235      -0.60728079
Zr       5.39263125       8.86004492       8.84812338      -0.05720970       0.29935682       0.13931142
Zr       7.13323067       0.00521773       0.02817310      -0.01717651      -0.05603698      -0.03663165
Zr       8.88311777       1.85677769       1.76692065       0.20428210      -0.15797372      -0.14872047
Zr       7.23426274       0.19106602       3.50853066      -0.26625958      -0.53075999       0.20046905
Zr       8.88242824       1.97786402       5.23214952       0.26754099      -0.44741264       0.43497485
Zr       7.25852298      -0.06594184       7.16705024      -0.36162215       0.29981506      -0.35973591
Zr       8.87400062       1.68135720       8.87295872       0.31993595       0.31545830      -0.09643136
Zr       7.10676547       3.45557005      -0.22167853       0.32595584       0.49408752       0.57084358
Zr       8.88491798       5.13327823       1.87184273      -0.22917053       0.70460284      -0.37856650
Zr       7.07226326       3.56030781       3.59997614      -0.08691232       0.17056051      -0.15068942
Zr       9.03577870       5.20592500       5.51633296      -0.06784976       0.59585118      -0.43702728
Zr       7.14552517       3.72280673       6.90084322      -0.05581451      -0.37515107       0.77836680
Zr       8.98761729       5.43396003       9.01837838      -0.14390947       0.12704322      -0.34581339
Zr       7.00083317       7.08733660      -0.01950747       0.50036740      -0.05152687      -0.01405754
Zr       8.88060887       8.85783529       1.81660665       0.16807751       0.29326019      -0.14048532
Zr       7.28459858       7.27254381       3.50231213      -0.22207835      -0.53818661       0.25838691
Zr       8.85301695       8.83414976       5.43693725       0.23709646       0.36444375      -0.21506020
Zr       7.03328753       7.09575570       6.92647012       0.33055431      -0.18220340       0.67108285
Zr       8.88012441       9.03906962       8.87417810       0.23399085      -0.55537128       0.17943355
54
Lattice="10.709999999999999 0.0 0.0 0.0 10.709999999999999 0.0 0.0 0.0 10.709999999999999" Properties=species:S:1:pos:R:3:forces:R:3 group=Zr_rattle10_b9 composition=Zr energy=-457.4460754394531 pbc="T T T"
Zr       0.09228321       0.00821310       0.08842646      -0.41361201       0.02069314      -0.23258473
Zr       1.68819788       1.85232912       1.83365249       0.47989929      -0.07162306      -0.13518386
Zr       0.13596656       0.08093242       3.53495964      -0.26843244      -0.34183112      -0.11250830
Zr       1.71864220       1.75504354       5.19594828       0.50465852       0.15539612       0.75526351
Zr      -0.07114004       0.11154542       7.11650765       0.31818449      -0.45174110       0.15881422
Zr       1.91131658       1.84188942       8.78733071      -0.73726618      -0.54038078       0.11721187
Zr       0.04946326       3.50542191       0.04815925       0.03220022       0.38492873      -0.32344976
Zr       1.89550154       5.30083310       1.92121365      -0.33330047       0.29405469      -0.24404007
Zr       0.04368238       3.49785651       3.69138984       0.05572248       0.48364949      -0.36958042
Zr       1.70425067       5.33843087       5.51995426       0.39437273       0.11447881      -0.40368310
Zr       0.04865315       3.52565371       7.20322968      -0.08529541       0.27396312       0.02473512
Zr       1.78754753       5.46261496       8.67726142       0.00519174       0.08375508       0.48286974
Zr      -0.13155853       7.23881063      -0.13047823       0.26938391      -0.25189376       0.35156858
Zr       1.68746581       8.74572729       1.79166278       0.26320007       0.17843263       0.01024643
Zr      -0.18100171       7.26304557       3.52297878       0.38889530      -0.59345531       0.02300339
Zr       1.79768273       8.83044532       5.38222342      -0.17303999       0.43054780       0.12291799
Zr      -0.06863716       7.21775766       7.11790755      -0.03877744       0.05366367       0.07896234
Zr       1.72498726       9.03031540       8.90651312       0.11154804      -0.23308361      -0.30771878
Zr       3.36586550      -0.08667849      -0.02669463       0.25462174       0.11004709       0.46169823
Zr       5.21881485       1.77923815       1.91004796       0.22757842       0.10205033      -0.62671858
Zr       3.60376600       0.10843174       3.73700083      -0.32942492      -0.48431391      -0.65126973
Zr       5.30686115       1.78367974       5.41512510       0.35506216       0.73357487      -0.31807557
Zr       3.84886204       0.08601705       7.07609465      -0.99053907      -0.63360810       0.06314731
Zr       5.08283667       1.67510761       8.98942512       1.10368776       0.24739668       0.41577280
Zr       3.33448778       3.49532150      -0.20390367       0.51541924       0.56339264       0.67999911
Zr       5.41438213       5.28658475       1.69926856      -0.45515209       0.10652652       0.18308762
Zr       3.63201874       3.57990688       3.56774646      -0.05970025       0.27246624       0.25319815
Zr       5.36854832       5.41969272       5.38839913       0.03591450      -0.39637497      -0.01870832
Zr       3.64617943       3.43478151       7.30514306       0.01803846       0.80644900      -0.75200319
Zr       5.62930512       5.39448270       8.94689529      -0.67965513      -0.11060207      -0.16625160
Zr       3.51192685       7.07661603      -0.08140324      -0.11039899      -0.17250952       0.04260180
Zr       5.26126970       8.78634565       1.71650501       0.10620533       0.30972269       0.24325089
Zr       3.49951071       7.25379464       3.70862832       0.10806733      -0.56589186      -0.44241655
Zr       5.33713164       8.93073694       5.21251744       0.23424366      -0.18898250       0.00991552
Zr       3.75805324       7.31994127       7.03181909      -0.22191262      -0.33251327       0.50809866
Zr       5.30984184       8.90493220       9.11914615       0.02209017      -0.09409550      -0.30153438
Zr       7.06636810       0.01612385      -0.12778021       0.22724836       0.24004132       0.47209996
Zr       8.88726467       1.89102348       1.83799332       0.02460375      -0.74104893      -0.19317649
Zr       6.89749571       0.09726768       3.67634507       0.74463975      -0.09883723      -0.40224692
Zr       9.08848999       1.81542600       5.39895757      -0.73237711      -0.18558456      -0.11476981
Zr       6.95579516      -0.09337513       7.07446177       0.67222893       0.26508605       0.25740990
Zr       9.10323378       1.84382261       8.85819108      -0.62204403      -0.22380656       0.41426885
Zr       7.19373240       3.58230371       0.12201615      -0.28989434      -0.53632021      -0.62604374
Zr       8.93063971       5.17750271       1.70605609       0.50530326       0.76686811       0.00814220
Zr       7.44989481       3.69860030       3.47357273      -1.04774451      -0.40134341       0.64063323
Zr       9.05430595       5.29716905       5.36076792      -0.24403793       0.19969799       0.25615638
Zr       7.12251051       3.45813928       7.14615282       0.07842761       0.10372847       0.08048749
Zr       8.83723042       5.47594558       8.95284742       0.30422518      -0.45978206      -0.21220013
Zr       7.16031079       7.12206101       0.02597936       0.12341926       0.24208701       0.28731683
Zr       8.90143104       9.03218746       1.93611212      -0.35500759       0.11023725      -0.39937764
Zr       7.15609838       7.00037682       3.60355063       0.08555668       0.30932587      -0.14599356
Zr       9.10148048       9.07599828       5.27262244      -0.55450201      -0.04645747       0.05291395
Zr       7.21529477       7.28988067       7.04788173      -0.11248343      -0.20102483      -0.08687212
Zr       8.78899901       8.91387218       8.87972174       0.28475979       0.39484429       0.13061537
16
Lattice="6.920913961719865 0.0 0.0 0.0 6.920913961719865 0.0 0.0 0.0 6.920913961719865" Properties=species:S:1:pos:R:3:forces:R:3 group=Zr_strain_vol_b0 composition=Zr energy=-134.73365783691406 pbc="T T T"
Zr       0.03385419       0.00785326       0.07880670      -0.09830811       0.01148365      -0.19846973
Zr       1.72818586       1.72825031       1.73801842       0.07512930       0.07877414      -0.01485345
Zr       0.00644241       0.02031714       3.44703422       0.09152302      -0.09858325       0.08770737
Zr       1.75222400       1.77013806       5.18963723      -0.03457662      -0.19376397       0.05682175
Zr      -0.00928938       3.45319858       0.05264888      -0.03737915       0.02324855      -0.09945817
Zr       1.76122136       5.20869175       1.69384022      -0.09576434      -0.08167897       0.15847813
Zr       0.02904610       3.47050386       3.47184730      -0.05216390       0.07454222       0.00349692
Zr       1.71595018       5.15805032       5.20849515       0.03866225       0.21653518      -0.09313248
Zr       3.47168141      -0.00780461       0.02652192       0.02799225       0.12393613      -0.12983352
Zr       5.19352663       1.75580520       1.75691369      -0.02341717      -0.04500821      -0.11365375
Zr       3.48628203       0.02075904       3.43159427      -0.13645065      -0.07124358       0.15002009
Zr       5.21452175       1.71993424       5.16042133       0.00359589       0.06585464       0.17855138
Zr       3.46272147       3.48354459      -0.01838153       0.07135129      -0.11649665      -0.00493078
Zr       5.14966617       5.16651537       1.76570978       0.15710373       0.07357155      -0.04457700
Zr       3.47106227       3.45556371       3.44112643      -0.00484465       0.07940145       0.09809320
Zr       5.20634082       5.25166765       5.21640079       0.01754682      -0.14057268      -0.03426003
16
Lattice="6.8221790815099155 0.0 0.0 0.0 6.8221790815099155 0.0 0.0 0.0 6.8221790815099155" Properties=species:S:1:pos:R:3:forces:R:3 group=Zr_strain_vol_b0 composition=Zr energy=-133.21397399902344 pbc="T T T"
Zr       0.03051774       0.03678870      -0.02488516      -0.01611408      -0.11369845       0.03049798
Zr       1.67620570       1.72555159       1.72469094       0.03542879       0.01202062      -0.14075139
Zr      -0.02082996      -0.01591940       3.39064936      -0.13221441      -0.06208846       0.00759280
Zr       1.68774901       1.70112762       5.09703621       0.14989454      -0.02880967       0.14866748
Zr      -0.02904152       3.38835917       0.02423999       0.25189453       0.10949981      -0.01157806
Zr       1.70224647       5.13549815       1.68125211      -0.02924442      -0.08292452      -0.03665465
Zr       0.00182458       3.37162956       3.43465596      -0.03342116       0.12281096      -0.06008798
Zr       1.66582111       5.09991247       5.11401226       0.11607420       0.01469655       0.05477943
Zr       3.47616999      -0.00595035       0.02183010      -0.14678764       0.01529369      -0.17395860
Zr       5.11377560       1.69255056       1.67687558       0.03046823      -0.09779301       0.15196046
Zr       3.37738954       0.02304598       3.35890949       0.14928830      -0.08731174       0.19751513
Zr       5.13675347       1.75926379       5.12412910      -0.11999381      -0.24234569      -0.13540514
Zr       3.46680134       3.38195879       0.01560707      -0.33130273       0.01038301      -0.05550438
Zr       5.12239044       5.05049058       1.68735046       0.06308988       0.17301181       0.13829994
Zr       3.40657799       3.40272839       3.39426184      -0.00739396       0.06006235       0.03995812
Zr       5.08224717       5.09323078       5.14570059       0.02033321       0.19719364      -0.15533109
16
Lattice="7.14 0.0 0.0 0.14351994982378166 7.14 0.0 0.0 0.0 7.14" Properties=species:S:1:pos:R:3:forces:R:3 group=Zr_strain_shear_b0 composition=Zr energy=-136.22457885742188 pbc="T T T"
Zr       0.01638442      -0.01691112       0.02527446      -0.03416502      -0.02298704      -0.08961356
Zr       1.83368181       1.78700046       1.75858439      -0.03984267      -0.03699405       0.06556589
Zr      -0.01989020      -0.02596665       3.57604567       0.04486386       0.00464742      -0.03098608
Zr       1.82196145       1.72467247       5.33943411       0.03332488       0.06030121      -0.01141009
Zr       0.10083043       3.53641515      -0.02318473      -0.09504446       0.05240442       0.02021412
Zr       1.88339371       5.33902417       1.79892054       0.01331869      -0.00968854      -0.00438874
Zr       0.07227790       3.56359882       3.58766490      -0.01658061      -0.01704355      -0.07299007
Zr       1.86792405       5.32456974       5.36247260       0.07692504       0.02136184      -0.04954308
Zr       3.55921389      -0.04474962      -0.00557144       0.03994662       0.05232260      -0.04081137
Zr       5.42748820       1.77703514       1.74302004      -0.06539796       0.04417699       0.02933135
Zr       3.56517703       0.01980043       3.52420106       0.02279417      -0.07881256       0.06767415
Zr       5.42528290       1.74746019       5.30986842      -0.11408482       0.04537566       0.10368650
Zr       3.59843749       3.54139322       0.00730700       0.13586526       0.00388865      -0.06740558
Zr       5.46868172       5.39106342       1.75957649      -0.01833481      -0.15711577       0.01710972
Zr       3.64222861       3.55006831       3.54509247       0.02921633       0.01331225       0.03383077
Zr       5.44028068       5.31655903       5.34063853      -0.01280452       0.02485047       0.02973609
16
Lattice="7.405664247821911 0.0 0.0 0.0 7.405664247821911 0.0 0.0 0.0 7.405664247821911" Properties=species:S:1:pos:R:3:forces:R:3 group=Zr_strain_vol_b0 composition=Zr energy=-135.42054748535156 pbc="T T T"
Zr       0.01096813       0.09737785       0.00397452      -0.00435520      -0.09494981      -0.01066951
Zr       1.86700662       1.83195556       1.84849958      -0.01973413       0.03248695       0.01047776
Zr      -0.04800780      -0.02017312       3.69818298       0.05363029       0.00508961      -0.00054317
Zr       1.82150535       1.86886329       5.49808717       0.03666011      -0.00789797       0.03371857
Zr      -0.01720106       3.70673474      -0.00774776       0.00672769      -0.01376138       0.01914686
Zr       1.86087303       5.54582747       1.85679183      -0.03158475       0.01804434      -0.03425540
Zr       0.02198327       3.71665858       3.69875491      -0.04794980       0.00290002      -0.01748472
Zr       1.85218893       5.55563030       5.59896418      -0.01521090       0.00511212      -0.05306462
Zr       3.66370189      -0.04092931      -0.00980316       0.01687850       0.06648718      -0.01226723
Zr       5.54183328       1.83000195       1.83248201      -0.00572710       0.02349672       0.01527862
Zr       3.67251660      -0.00217549       3.66323030       0.01635254      -0.00996871       0.04372483
Zr       5.54749415       1.85798163       5.53941730      -0.02251183      -0.01594739      -0.00474609
Zr       3.71611390       3.70022466      -0.02034312      -0.01795568      -0.00548345       0.02027491
Zr       5.54542888       5.60172062       1.84395127       0.01102917      -0.03131969      -0.02162131
Zr       3.71037406       3.71008848       3.68091796      -0.00446012       0.01237047       0.01160672
Zr       5.52461793       5.56317600       5.56661111       0.02821117       0.01334099       0.00042380
16
Lattice="7.14 0.0 0.0 -0.3335279334438404 7.14 0.0 0.0 0.0 7.14" Properties=species:S:1:pos:R:3:forces:R:3 group=Zr_strain_shear_b0 composition=Zr energy=-136.1663360595703 pbc="T T T"
Zr      -0.01218615      -0.02844704       0.05257527       0.02898864       0.11385624      -0.12051469
Zr       1.67136969       1.80912682       1.81197676       0.10214606      -0.01538847      -0.01535284
Zr       0.03444338      -0.00873632       3.58307453      -0.09090778       0.05567814       0.07481927
Zr       1.67360054       1.79319404       5.38242101       0.12562034      -0.01025075      -0.00365534
Zr      -0.16444997       3.56506506       0.02069731      -0.01714741      -0.05262199      -0.00788986
Zr       1.48733262       5.35174923       1.83338906       0.12789835       0.00574071      -0.11671072
Zr      -0.14866193       3.55433063       3.62372440      -0.09025459      -0.02409425      -0.05916663
Zr       1.51080005       5.32208464       5.35107003       0.05873328       0.07660169       0.11041570
Zr       3.53079488      -0.01067693       0.01240245       0.03826609       0.03020932       0.02347784
Zr       5.25045368       1.79484051       1.81495829      -0.00399411      -0.04259225      -0.00509118
Zr       3.55727413      -0.01608607       3.59128834       0.02439423       0.08690739      -0.01270152
Zr       5.27381749       1.77499472       5.36241013      -0.07155735      -0.02697697       0.01896084
Zr       3.43821500       3.57433276       0.02250237      -0.10044374      -0.02866323      -0.00003006
Zr       5.17120791       5.36933469       1.78574426      -0.14771122      -0.01313341       0.03744718
Zr       3.41679965       3.67113553       3.54429863      -0.02948123      -0.23352239       0.07420458
Zr       5.08796053       5.33638848       5.37533075       0.04545049       0.07825017       0.00178741
16
Lattice="7.14 0.0 0.0 0.0 7.14 0.0 0.0 -0.06236372352088031 7.14" Properties=species:S:1:pos:R:3:forces:R:3 group=Zr_strain_shear_b0 composition=Zr energy=-136.20358276367188 pbc="T T T"
Zr      -0.00945418       0.02615934      -0.03647364      -0.06752030      -0.10331105       0.11215332
Zr       1.76840443       1.72779726       1.75914198      -0.05297565       0.07251932       0.04559726
Zr       0.05228600      -0.05484185       3.58952964      -0.10929414       0.00040615      -0.06505473
Zr       1.78832044       1.67869096       5.35414356       0.05735105       0.19957873       0.00569608
Zr      -0.01331683       3.54552607      -0.01711909      -0.00743352       0.06917912       0.04713909
Zr       1.79943300       5.33235331       1.80183028      -0.10444529      -0.04062208      -0.07879884
Zr       0.01023991       3.51964640       3.60913530       0.00317493       0.03472244      -0.06683865
Zr       1.81536777       5.33450564       5.38528714      -0.05241001      -0.19801821      -0.01340974
Zr       3.53635489       0.01064456      -0.02162574       0.14424184      -0.03986278       0.06928758
Zr       5.29322689       1.78209819       1.81173791       0.19207883      -0.06435081      -0.05376267
Zr       3.56908246      -0.08128008       3.55979343       0.00598353       0.07826311       0.01212738
Zr       5.38274324       1.69761624       5.31536935      -0.11512563       0.10124198       0.07098697
Zr       3.58102063       3.57214273       0.07337632       0.00313514      -0.00927633      -0.18392894
Zr       5.37284128       5.38353817       1.82861110       0.04219200      -0.10387374      -0.11090752
Zr       3.54509840       3.49026710       3.52126260       0.01293436       0.07696873       0.16326839
Zr       5.32511146       5.30096170       5.34534204       0.04811306      -0.07356471       0.04644499
16
Lattice="7.14 0.0 0.0 0.0 7.14 0.0 0.0 -0.22773029899976566 7.14" Properties=species:S:1:pos:R:3:forces:R:3 group=Zr_strain_shear_b0 composition=Zr energy=-136.18963623046875 pbc="T T T"
Zr      -0.02016219       0.01680118      -0.01470157      -0.04197902       0.04004272       0.04242597
Zr       1.79736327       1.73499722       1.80845029      -0.08609983      -0.05018034      -0.01161651
Zr      -0.01225259      -0.09466580       3.60028068       0.03909554      -0.06917886      -0.06279773
Zr       1.78088873       1.63996665       5.40892648       0.04165785      -0.08211458      -0.14280504
Zr       0.00012214       3.57123379      -0.02489994      -0.07073550      -0.08848101      -0.01410381
Zr       1.74894388       5.25826216       1.72990404       0.02946691       0.14639217       0.16915214
Zr       0.03957912       3.44858561       3.56829531      -0.08877367       0.03573478       0.06598144
Zr       1.76605052       5.20059049       5.41911406       0.04570156       0.01157867      -0.18006988
Zr       3.53931095       0.00546928       0.01399526       0.08583027      -0.01724472      -0.01579835
Zr       5.32301683       1.72103912       1.80985604       0.10655263       0.00324374      -0.03899517
Zr       3.58550974      -0.11187652       3.50860477      -0.08499143      -0.09189293       0.10435568
Zr       5.30886947       1.62937353       5.32702922       0.03406951      -0.01209199       0.03678471
Zr       3.56457905       3.56985274       0.04373366       0.03544571      -0.01239918      -0.10845289
Zr       5.40780965       5.22492784       1.72647383      -0.07448579       0.17230479       0.16101378
Zr       3.55492115       3.48020757       3.57286712      -0.00004844       0.03918627       0.03185233
Zr       5.32336073       5.20398863       5.34952067       0.02929372      -0.02489951      -0.03692664
16
Lattice="7.5331925328782585 0.0 0.0 0.0 7.5331925328782585 0.0 0.0 0.0 7.5331925328782585" Properties=species:S:1:pos:R:3:forces:R:3 group=Zr_strain_vol_b0 composition=Zr energy=-134.41250610351562 pbc="T T T"
Zr       0.03607567       0.01811997      -0.00576802      -0.04279391      -0.02864032      -0.00217239
Zr       1.91058976       1.91354233       1.87111787      -0.03815180      -0.03949136       0.02021228
Zr       0.01063884       0.00198271       3.73205271      -0.00664797       0.00099561      -0.00113459
Zr       1.90743634       1.89794290       5.65278052      -0.06128711      -0.02941895      -0.03407119
Zr       0.02840003       3.78164820       0.01649092      -0.03414060       0.00940932      -0.05951444
Zr       1.92067212       5.64944520       1.88739787      -0.01346165      -0.01198590      -0.02482600
Zr      -0.02494337       3.78612433       3.75762913       0.03166759       0.00170624      -0.01056282
Zr       1.88358107       5.63657395       5.59007806       0.00266352       0.02599837       0.08458775
Zr       3.80670534       0.02425746      -0.03929254      -0.05978215      -0.00853593       0.04188293
Zr       5.66911434       1.91761891       1.86754532      -0.00104128      -0.04945866       0.02104051
Zr       3.75754008      -0.00778774       3.74835276       0.01086831       0.03343650      -0.01554423
Zr       5.61918726       1.89468495       5.59042683       0.09832916      -0.04159029       0.06349639
Zr       3.76492768       3.68410167      -0.00711046       0.00593305       0.12947281      -0.03948834
Zr       5.61024693       5.61747506       1.86665980       0.04521804       0.04222136      -0.01341376
Zr       3.78182513       3.75749620       3.80843699      -0.00760257       0.02066177      -0.07523671
Zr       5.61900200       5.70082775       5.62460654       0.07022945      -0.05478046       0.04474464
16
Lattice="7.14 0.0 0.0 0.0 7.14 0.0 0.0 0.0 7.14" Properties=species:S:1:pos:R:3:forces:R:3 group=Zr_md600_b0 composition=Zr energy=-135.35206604003906 pbc="T T T"
Zr      -0.09342422       0.05514007       0.30285118       0.43665400      -0.02435975      -0.75543791
Zr       1.90501282       1.89612566       1.88228380      -0.33190936      -0.02787665      -0.38139477
Zr       0.12389691       0.09007790       3.78728521      -0.72062403      -0.12671864      -0.53277308
Zr       1.72632151       1.80865365       5.36840580       0.34363952       0.13403510       0.25305182
Zr      -0.02012436       3.46408005      -0.17627386       0.50205916       0.45264658       0.84015250
Zr       1.89819384       5.44291733       1.83098197      -0.38554451      -0.42023638      -0.14743438
Zr      -0.20276180       3.52308868       3.52359872       0.98508495       0.32643238      -0.16443709
Zr       1.72486615       5.53660541       5.24413075       0.17588279      -0.71376669       0.51602840
Zr       3.63392569       0.04772218      -0.07238874      -0.12410524      -0.02420662       0.05478330
Zr       5.37250427       1.81182632       1.86343139      -0.08142102      -0.16399859      -0.25498888
Zr       3.48140132      -0.02191235       3.48231303       0.63686109       0.05834987       0.41610384
Zr       5.33582442       1.96431176       5.39652498      -0.10213053      -1.10163593       0.14884964
Zr       3.64118394       3.70158267       0.05301639      -0.46952766      -0.17802578      -0.00942150
Zr       5.43146032       5.41409712       1.75897335      -0.10597026      -0.13027412       0.28351516
Zr       3.70324918       3.39532807       3.64603185      -0.70037675       0.76032507      -0.19618918
Zr       5.38021593       5.14618405       5.37210604      -0.05857226       1.17931008      -0.07040779
16
Lattice="7.14 0.0 0.0 0.0 7.14 0.0 0.0 0.0 7.14" Properties=species:S:1:pos:R:3:forces:R:3 group=Zr_md600_b0 composition=Zr energy=-135.7955780029297 pbc="T T T"
Zr      -0.03103946       0.11687900       0.30097061       0.34255886      -0.12286501      -0.47084531
Zr       1.85046793       1.99196308       1.86183745       0.10187368      -0.52807242      -0.19353245
Zr       0.04612460       0.15321984       3.68969759       0.19359490      -0.10658079      -0.12657563
Zr       1.87585542       1.98897513       5.43294933      -0.28509906      -0.39552897      -0.04428051
Zr       0.07184403       3.57242411       0.00427709      -0.38420686       0.03504097       0.00342417
Zr       1.82043242       5.25260611       1.79166052       0.04920994       0.52424043       0.16301510
Zr      -0.02020319       3.57229856       3.47450308      -0.07890961      -0.00883770       0.52941495
Zr       1.63531425       5.41005422       5.39832377       0.30291539       0.08388591      -0.12340230
Zr       3.55601480       0.10204898      -0.14305028      -0.18555033      -0.27399546       0.57528472
Zr       5.38002804       1.76212484       1.82921814      -0.22744906       0.20300075      -0.10684068
Zr       3.65524466      -0.03022488       3.51742770      -0.39163998      -0.00806739       0.14837304
Zr       5.27230191       1.71101381       5.45071147       0.39067602       0.35115623      -0.07049811
Zr       3.62873271       3.76228653       0.02145970       0.18039405      -0.15411647      -0.03897852
Zr       5.43339929       5.37203502       1.93551981      -0.17109786       0.02777631      -0.24551192
Zr       3.59068133       3.42701801       3.62614808       0.21815515       0.62028408       0.11402787
Zr       5.45168307       5.48944957       5.43906078      -0.05542490      -0.24732071      -0.11307433
16
Lattice="7.14 0.0 0.0 0.0 7.14 0.0 0.0 0.0 7.14" Properties=species:S:1:pos:R:3:forces:R:3 group=Zr_md600_b0 composition=Zr energy=-135.86582946777344 pbc="T T T"
Zr       0.16746068       0.02898926       0.09586401      -0.23839380       0.14097697      -0.00246168
Zr       1.81273054       1.79140216       1.84823935       0.07856264       0.44633940      -0.04219390
Zr       0.11382375       0.14545183       3.46750415      -0.10369264      -0.03808121       0.29417300
Zr       1.98305502       1.85797019       5.52423692      -0.22215718       0.10683828      -0.05723426
Zr      -0.14380705       3.68459478       0.15980498       0.38415429      -0.10015462      -0.26113549
Zr       1.74736427       5.24540742       1.83125819       0.02797711       0.15585968       0.28022420
Zr       0.03833263       3.51621323       3.76361237      -0.16309279       0.13285878      -0.23653944
Zr       1.74655600       5.39142370       5.46086619       0.13013572       0.02387273      -0.18708292
Zr       3.52514398      -0.00370790       0.18833491       0.10288888      -0.00533987      -0.34203744
Zr       5.24826006       1.89344158       1.60215329       0.25680146      -0.14744857       0.64136559
Zr       3.59635096       0.12534413       3.62877314      -0.05969679      -0.07322693       0.07776366
Zr       5.48803535       1.78997988       5.45898144      -0.26140690       0.05568750      -0.07428817
Zr       3.69132310       3.77901613       0.12327198      -0.19673973      -0.11938304      -0.38676712
Zr       5.31775041       5.49931152       1.88769438       0.28201124      -0.05773559       0.19080874
Zr       3.59911843       3.72558972       3.66196030       0.16811633      -0.19643387       0.15131253
Zr       5.50574327       5.65978370       5.39048349      -0.18546790      -0.32462978      -0.04590737
16
Lattice="7.14 0.0 0.0 0.0 7.14 0.0 0.0 0.0 7.14" Properties=species:S:1:pos:R:3:forces:R:3 group=Zr_md600_b0 composition=Zr energy=-135.6134796142578 pbc="T T T"
Zr      -0.08185277       0.21323414       0.10749879       0.27651539      -0.48496658       0.18479925
Zr       1.87125856       1.94124894       1.91289485      -0.02762487      -0.31856993      -0.00976678
Zr      -0.00887229       0.21963741       3.94795806       0.09406160      -0.14499976      -0.63672084
Zr       1.69877169       1.93761061       5.52238912       0.48024821      -0.27042589      -0.21245900
Zr       0.30004097       3.72877948       0.04304648      -0.85968518       0.15688103       0.39721996
Zr       1.89680061       5.61695191       1.92890060      -0.20783901      -0.05603746      -0.00315572
Zr       0.22142580       3.63703598       3.73259506      -0.40869230       0.06603464      -0.18136090
Zr       1.81304619       5.45457101       5.40097876       0.18691406       0.27048653      -0.05505717
Zr       3.55667838       0.12447894      -0.15344832       0.04040051      -0.29916033       0.77376211
Zr       5.54273471       1.91266289       1.89016809      -0.27848873       0.11962348      -0.07809272
Zr       3.67404041       0.13723932       3.55178329      -0.09119132       0.03233941       0.21389857
Zr       5.17736848       1.81666380       5.60803815       0.51642334       0.59591937      -0.24628976
Zr       3.46656438       3.69101615       0.11881522       0.58489913       0.22525354       0.15770704
Zr       5.48193895       5.38760464       2.07916055       0.03097565       0.13011163      -0.57322931
Zr       3.70606431       3.60873060       3.68875878      -0.19596545       0.08891447      -0.06518824
Zr       5.44362544       5.39920481       5.38989524      -0.14095090      -0.11140433       0.33393365
16
Lattice="7.14 0.0 0.0 0.0 7.14 0.0 0.0 0.0 7.14" Properties=species:S:1:pos:R:3:forces:R:3 group=Zr_md1400_b1 composition=Zr energy=-134.76589965820312 pbc="T T T"
Zr       0.07741251       0.11772274      -0.03173385      -0.49845999      -0.22740881      -0.73363918
Zr       2.05940225       1.38854231       1.55398354      -0.09825772       0.82515657      -0.08614874
Zr       0.29762928      -0.14436976       3.50581998       0.10955696       0.23984475       0.28137064
Zr       1.95046631       1.61173804       5.24176589       0.31578502       0.25889045       0.28043562
Zr      -0.05305526       3.23208343      -0.15365267      -0.03051117       0.09321380       0.10082089
Zr       1.64503796       5.24742786       1.31868189       0.43024760       0.20991862       0.72750193
Zr       0.42161679       3.31883883       3.33589917      -0.58260894      -0.04626191       0.14130180
Zr       1.79816724       4.94504280       5.53429563       0.06425011       0.64741546      -0.68341160
Zr       3.68942568      -0.20656497      -0.28625930       0.71027374       0.05765507       0.21840926
Zr       5.39914140       1.82846425       1.97462123       0.06386018      -0.34163752      -0.39876619
Zr       3.63562077      -0.08269251       3.36963216       0.02729425      -0.83808935       0.19183731
Zr       5.39262225       1.68100330       5.15401792      -0.23335853       0.34974372      -0.02352334
Zr       3.78393855       3.77965374       0.32839429       0.41060692      -0.74684578      -1.05448616
Zr       5.91627881       5.38654982       1.72109002      -1.23439467      -0.17475796      -0.03045528
Zr       3.31720077       3.69745442       3.32217591       0.93639517      -0.02144664       0.37992227
Zr       5.63452226       5.22708577       4.93247212      -0.39067936      -0.28539073       0.68883073
16
Lattice="7.14 0.0 0.0 0.0 7.14 0.0 0.0 0.0 7.14" Properties=species:S:1:pos:R:3:forces:R:3 group=Zr_md1400_b1 composition=Zr energy=-133.74830627441406 pbc="T T T"
Zr       0.57580337      -0.58824319      -0.34441621       0.17554110       0.51086020       0.32377875
Zr       2.08557444       1.35900039       1.38008486       0.39833695       0.12675726       0.28874341
Zr       0.08945270      -0.31177068       3.16534955       0.00516375       0.22897251      -0.67248863
Zr       2.16751011       1.13526278       4.79086008      -0.23539355       0.96623391       0.16229823
Zr       0.64558076       3.42010754      -0.26241467       0.18450153      -0.14028500      -0.74910688
Zr       2.58121939       4.63314101       1.83801947      -0.79668117      -0.20784867      -1.98511779
Zr       0.32904125       3.04707059       3.20960028       0.09568983       0.44399688       0.12732704
Zr       2.22173030       5.08090694       4.39045405      -0.61363626      -0.56627738       2.33138633
Zr       3.89139703      -0.26230577      -0.52242760      -0.22631460      -0.49609774       0.64647716
Zr       5.46091742       2.06414603       1.15029798       0.60532814      -1.97949123       0.55156380
Zr       3.93517915      -0.56326014       3.00551343       1.31256747       2.00977635       0.12927236
Zr       5.82694924       1.59584565       5.33029735       0.88511711      -1.11382008      -0.15040368
Zr       3.84828553       3.22553418      -0.59410752      -1.04079604       0.73514360      -0.22283030
Zr       5.67916610       5.05414575       1.24157224       0.24632785      -0.06449580       0.32150838
Zr       4.44601898       3.01257664       3.57814093      -1.22369993       0.19697955      -0.71632046
Zr       5.74069627       5.23899519       5.13401283       0.22794798      -0.65040451      -0.38608760
16
Lattice="7.14 0.0 0.0 0.0 7.14 0.0 0.0 0.0 7.14" Properties=species:S:1:pos:R:3:forces:R:3 group=Zr_md1400_b1 composition=Zr energy=-134.69134521484375 pbc="T T T"
Zr       0.53977438      -0.34752328      -0.49314492       0.45978108      -0.58084375       0.51273304
Zr       2.28107807       1.30460095       1.29942498      -0.24491106       0.22374149       0.08895086
Zr       0.24487590      -0.45819370       3.09150332       0.76945144       0.12323675      -0.01893433
Zr       2.35891663       1.49582926       4.72891252      -0.49000567      -0.44186282       0.43288139
Zr       0.60771456       3.33934601      -0.45426166      -0.70569688      -0.69640237       0.17068726
Zr       2.42954166       4.46833325       1.32075472      -0.52357566       1.75131822       0.95802224
Zr       0.42608077       3.05883267       2.99747420      -0.33809021      -0.02487278       0.33162794
Zr       2.04535346       4.82437488       4.86306274       0.39607790       0.99823916      -0.78159130
Zr       3.91713779      -0.42002520      -0.28133508      -0.08601975      -0.14181879      -0.75286257
Zr       5.71964107       1.44397081       1.24938264       0.23691830       0.39722574      -0.21466045
Zr       4.11129626      -0.04914015       3.12342804      -0.06457353      -1.27945352       0.39571837
Zr       6.04400570       1.19621766       5.28325164      -0.74538207       0.83544970      -0.81603193
Zr       3.80999822       3.42538341      -0.65422518       1.15657520      -1.17795610       0.25925446
Zr       5.80369346       5.06137256       1.35064610      -0.03577036      -0.34574085      -0.25513348
Zr       4.22877511       3.27642973       3.21432685       0.03113192      -0.37545335      -0.01986140
Zr       5.80416839       4.79878830       5.04662699       0.18408900       0.73519343      -0.29079992
16
Lattice="7.14 0.0 0.0 0.0 7.14 0.0 0.0 0.0 7.14" Properties=species:S:1:pos:R:3:forces:R:3 group=Zr_md1400_b1 composition=Zr energy=-134.93533325195312 pbc="T T T"
Zr       0.82857682      -0.43019103      -0.74309099      -0.56044501       0.46842414       0.44111589
Zr       2.48806054       1.20788935       1.45655656      -0.53738689      -0.03715663      -0.36522642
Zr       0.31806022      -0.09301767       3.36101738       0.73693573      -0.75030011      -0.28845507
Zr       2.23680654       1.64584808       4.89654981       0.60390842      -0.44937384      -0.38462210
Zr       0.58353637       3.02836707      -0.40901283      -0.18153363       0.00100264       0.35917166
Zr       2.08456899       5.23818960       1.37318290       0.01198655      -0.73773736       0.15338880
Zr       0.20123414       3.03268213       2.98210509       0.65949482       0.42371789      -0.27492511
Zr       2.45508238       4.88764698       4.80444688      -0.54352367      -0.49696934      -0.21501949
Zr       4.15623840      -0.76754687      -0.58072192      -0.23277712       0.79066968      -0.08297639
Zr       5.84987350       0.92447799       1.30807123       0.07986808       0.85071385      -0.66399181
Zr       4.18485744      -0.68566870       3.13720544      -0.25034228       0.34430385       0.28537640
Zr       5.57546436       1.49496575       4.76581340       0.12320378      -0.18261284       0.51995152
Zr       4.17109890       3.01082463      -0.41439994      -0.08873579       0.47094220       0.23200351
Zr       5.96845739       5.12882570       1.21927765       0.30556139      -0.68300658       0.06477536
Zr       3.97801576       3.14371185       2.73293998       0.38082275       0.39553416       0.44074386
Zr       6.17565680       4.89833837       4.95667676      -0.50703681      -0.40815187      -0.22131036
16
Lattice="6.62 0.0 0.0 0.0 6.62 0.0 0.0 0.0 6.62" Properties=species:S:1:pos:R:3:forces:R:3 group=Nb_rattle05_b0 composition=Nb energy=-160.14035034179688 pbc="T T T"
Nb      -0.02293900       0.03895074       0.07890506       0.19850267       0.06924266      -0.30826688
Nb       1.73718107       1.77337267       1.67739897      -0.43447635      -0.24976000      -0.32635617
Nb      -0.00842371       0.00823661       3.27484581      -0.14196271       0.14292222       0.36536449
Nb       1.69874003       1.58664312       4.92402893      -0.28979611       0.23844226       0.23860297
Nb      -0.05758458       3.30213699      -0.07345605       0.28909704      -0.01444137       0.32418457
Nb       1.59310388       5.05623659       1.71392279       0.16370118      -0.11763878      -0.50678277
Nb       0.08045484       3.30267534       3.34541630      -0.51906633      -0.03026424      -0.14999098
Nb       1.67500139       4.94546387       4.90896778      -0.11850604       0.12154759       0.41813576
Nb       3.32361529       0.05022474       0.00926770      -0.21744129      -0.21220326       0.08252998
Nb       4.92926463       1.65006030       1.70104664       0.21223810       0.30543372      -0.00396457
Nb       3.25751699       0.03217194       3.32657313       0.36929408      -0.06251913      -0.03786834
Nb       4.90649210       1.66977397       5.01437395       0.25824577      -0.04123592      -0.28778690
Nb       3.29619670       3.33985279      -0.05177772      -0.06895922       0.11305472       0.09201353
Nb       4.96755143       5.02981326       1.63956896      -0.12279907      -0.27032602       0.15707356
Nb       3.26731108       3.38994934       3.21999649       0.46871790      -0.06137365       0.29590112
Nb       4.98824499       4.97874955       5.03205545      -0.04678939       0.06911930      -0.35278937
16
Lattice="6.62 0.0 0.0 0.0 6.62 0.0 0.0 0.0 6.62" Properties=species:S:1:pos:R:3:forces:R:3 group=Nb_rattle05_b0 composition=Nb energy=-160.1335906982422 pbc="T T T"
Nb       0.00322243       0.03535010      -0.04954635      -0.09581762      -0.05701885       0.18575999
Nb       1.63342074       1.63124413       1.65043879      -0.01512869       0.19045427      -0.16277385
Nb      -0.01815353       0.03474986       3.28387620       0.10446040      -0.28929865       0.17929658
Nb       1.64143692       1.59677336       4.93758178      -0.09310457       0.18428203       0.00284022
Nb      -0.03506926       3.33169042      -0.02033287       0.13392866      -0.12268625       0.09397394
Nb       1.68247010       4.96824698       1.68172625      -0.13532794      -0.09613433      -0.29977059
Nb       0.02396306       3.31502228       3.25721267      -0.11192051       0.04188666       0.19202641
Nb       1.67655649       4.92390715       4.88738051      -0.24986756       0.18999337       0.14086583
Nb       3.25024162       0.02236188       0.01355313       0.16973311       0.03798039      -0.05273440
Nb       4.92080474       1.59488386       1.82321185       0.12356400       0.34520942      -0.88262951
Nb       3.33900727      -0.02376543       3.26686598      -0.19243392      -0.15926471       0.36246815
Nb       4.89973327       1.68525860       4.96545637       0.26476976      -0.15245110       0.26564184
Nb       3.28352871       3.38930113      -0.13392039      -0.07884026      -0.36352712       0.67002738
Nb       4.96348121       4.97632073       1.66452000       0.06814280      -0.15582101      -0.00101133
Nb       3.31591639       3.25434146       3.30461347      -0.05653915       0.24524599      -0.17788026
Nb       4.94708489       4.97158419       5.08094189       0.16438112       0.16114983      -0.51610035
16
Lattice="6.62 0.0 0.0 0.0 6.62 0.0 0.0 0.0 6.62" Properties=species:S:1:pos:R:3:forces:R:3 group=Nb_rattle05_b0 composition=Nb energy=-160.127685546875 pbc="T T T"
Nb       0.10784435      -0.04405358       0.03853536      -0.55371326       0.30073425      -0.12302396
Nb       1.63600129       1.66781826       1.68406487       0.07717996       0.08135474       0.06624371
Nb       0.00774267       0.05312442       3.28628535      -0.16787687      -0.04660806       0.19065958
Nb       1.63860738       1.67994349       4.98927502       0.02122308      -0.13770464      -0.19018343
Nb      -0.03879044       3.25557267       0.05419143      -0.08137855      -0.06972525       0.00878946
Nb       1.57929407       4.93498579       1.56992391       0.36458102      -0.05073434       0.55073196
Nb      -0.11449435       3.36523291       3.30809454       0.41721871      -0.19220874      -0.03446482
Nb       1.51263191       4.93354410       5.04694246       0.48445952       0.03935736      -0.48282826
Nb       3.34822163      -0.00284219       0.02869529      -0.01460677      -0.09290069      -0.15129311
Nb       4.88487050       1.69822230       1.66527619       0.10670909      -0.12512976       0.08608525
Nb       3.20879578      -0.05276369       3.35088265       0.16595149       0.12976405       0.07581198
Nb       4.98881474       1.65293508       4.98397963      -0.07016680      -0.36263722      -0.07650570
Nb       3.27192385       3.25369773      -0.08414640       0.02439803       0.18446408       0.39895147
Nb       4.93167370       5.05523391       1.71921041      -0.09548117      -0.15451407      -0.19185556
Nb       3.33701040       3.33987424       3.32247717      -0.44754452      -0.06934104      -0.13248681
Nb       4.97670515       4.86156642       5.02906865      -0.23095268       0.56582946       0.00536819
16
Lattice="6.62 0.0 0.0 0.0 6.62 0.0 0.0 0.0 6.62" Properties=species:S:1:pos:R:3:forces:R:3 group=Nb_rattle05_b0 composition=Nb energy=-160.2340087890625 pbc="T T T"
Nb      -0.00741614       0.03028677       0.04879497       0.08322771      -0.03884999      -0.25839183
Nb       1.66736925       1.67185991       1.63891257       0.00395413      -0.06863691       0.10311013
Nb      -0.02279384       0.02207140       3.33826284       0.09779423       0.04789633       0.05287671
Nb       1.60857832       1.72100090       4.96272762       0.24753225      -0.23950249      -0.01671102
Nb      -0.00655935       3.36419922       0.05546793      -0.09461285      -0.05240342      -0.06395911
Nb       1.60679180       4.97796524       1.60321200       0.22102249       0.16476519       0.29761592
Nb      -0.00024347       3.33811066       3.33854600       0.06852672      -0.11240996      -0.22378981
Nb       1.60115381       4.96695890       4.96760089       0.25473729       0.21984564      -0.08086494
Nb       3.38104672       0.05206722      -0.02871980      -0.25848904      -0.15191442      -0.13158572
Nb       5.01133268       1.65139507       1.58922751      -0.16999760       0.16689469       0.35349563
Nb       3.30188740       0.00573956       3.27470179      -0.04971215       0.06111380       0.18924159
Nb       5.00009992       1.74678215       4.99692357      -0.21543419      -0.34390622      -0.14029831
Nb       3.23783549       3.35401596       0.01497742       0.27610913      -0.00157632      -0.11210424
Nb       4.95409254       5.00669713       1.72692316      -0.05342272      -0.10812241      -0.29060569
Nb       3.33518405       3.30069440       3.25839481      -0.19017074      -0.00341611       0.11853766
Nb       4.97285831       4.88380295       4.94566309      -0.22106424       0.46022266       0.20343296
16
Lattice="6.62 0.0 0.0 0.0 6.62 0.0 0.0 0.0 6.62" Properties=species:S:1:pos:R:3:forces:R:3 group=Nb_rattle10_b1 composition=Nb energy=-159.73472595214844 pbc="T T T"
Nb      -0.14914275       0.15894672      -0.01629160       0.45356157      -0.51789463       0.16641147
Nb       1.67097799       1.73514599       1.76994914      -0.33670452      -0.30464423      -0.46699128
Nb      -0.14185786       0.03097463       3.26596245       0.27884117      -0.01481601      -0.05607572
Nb       1.54348114       1.70983268       4.92249035       0.07110880      -0.45780998       0.44672832
Nb       0.13366070       3.43984911       0.15638639      -0.48947716      -0.03245208      -0.45164597
Nb       1.70738576       5.04431393       1.67154347      -0.14033696       0.15877472       0.11278656
Nb      -0.09253319       3.35504478       3.40423720       0.46731049      -0.03649834      -0.33951306
Nb       1.61744662       4.89546186       4.89567998       0.33830374       0.71956348       0.13532123
Nb       3.19089641       0.07445209      -0.02276576       0.17110917      -0.22927603      -0.07624219
Nb       5.01564127       1.77691649       1.58772896      -0.32954144      -0.50871021       0.08124672
Nb       3.25252192       0.15010080       3.31274787       0.22147191      -0.75102508       0.08615207
Nb       4.98499523       1.76483357       4.98316864      -0.29302680      -0.31408662       0.22309759
Nb       3.17542677       3.28228068      -0.03895203       0.58821130       0.28772664       0.07500958
Nb       4.89068190       4.80110931       1.71629957      -0.08353575       0.91336006      -0.35941613
Nb       3.31708968       3.15781336       3.33519378      -0.17325439       0.91531003       0.04886582
Nb       5.07116197       4.99603463       4.96183730      -0.74404109       0.17247829       0.37426469
16
Lattice="6.62 0.0 0.0 0.0 6.62 0.0 0.0 0.0 6.62" Properties=species:S:1:pos:R:3:forces:R:3 group=Nb_rattle10_b1 composition=Nb energy=-159.8507080078125 pbc="T T T"
Nb       0.03100585       0.02943242       0.02275609      -0.23273112       0.05172355      -0.27201119
Nb       1.65142661       1.58587885       1.73040277      -0.16092397       0.57310879      -0.17645285
Nb      -0.02127321      -0.05437605       3.28340558      -0.06666885       0.34516084       0.08025384
Nb       1.61380356       1.75866257       5.01704520      -0.07242416      -0.71020931      -0.01900766
Nb      -0.09589079       3.29902644       0.01765696       0.38065425      -0.11629966       0.21841688
Nb       1.79376875       5.09430523       1.56494427      -0.92925537      -1.06318593       0.53268486
Nb       0.03829699       3.39129536       3.42707868      -0.32929683      -0.47093835      -0.83403003
Nb       1.62826075       4.88840414       5.04073444       0.12979966       0.57445669      -0.24948795
Nb       3.27980937      -0.10844980       0.02009640       0.49285692       0.73509526      -0.67968059
Nb       4.90431556       1.63947767       1.52704539       0.08812658      -0.07609098       0.52215278
Nb       3.22713864      -0.11028236       3.28312013       0.44255042       0.35422623       0.43146735
Nb       4.85013402       1.62609856       4.86901668       0.20089881      -0.08774100      -0.00939382
Nb       3.32001016       3.30608372      -0.05146621      -0.08415475      -0.26811031       0.13260050
Nb       4.97313658       4.91594938       1.55494324       0.25702411       0.09000117       0.46509892
Nb       3.19400219       3.30845340       3.30802069       0.50252801      -0.08429299      -0.19740367
Nb       5.06887055       4.95140486       4.90978796      -0.61898357       0.15309566       0.05479264
16
Lattice="6.62 0.0 0.0 0.0 6.62 0.0 0.0 0.0 6.62" Properties=species:S:1:pos:R:3:forces:R:3 group=Nb_rattle10_b1 composition=Nb energy=-158.97024536132812 pbc="T T T"
Nb      -0.02038780       0.15517382      -0.07941959       0.38539240      -0.91683042       0.50052810
Nb       1.43823770       1.56915492       1.88377475       1.73050034       0.68715960      -1.39039135
Nb      -0.00538604      -0.11301063       3.13914519      -0.03952098      -0.21906954       0.98844057
Nb       1.71277175       1.74924640       4.86755952      -0.05682689      -0.40021703       0.41803411
Nb      -0.06516645       3.45211791      -0.11117278       0.23740673      -0.47829854       0.48131871
Nb       1.65633026       5.05843985       1.65187738      -0.02256215      -0.74162287       0.02319448
Nb      -0.07202963       3.26550832       3.09161365       0.15631145       0.64511377       1.32667005
Nb       1.55202336       4.89598998       5.11020806       0.94967103       0.49978110      -0.86772829
Nb       3.14208188       0.06272984       0.03347322       0.55809748      -0.21793404      -0.14154564
Nb       5.07381991       1.67915872       1.61738639      -1.10961807      -0.48472580       0.13577363
Nb       3.48171921      -0.01096239       3.30733910      -0.86957502       0.23056141       0.28242072
Nb       5.12624625       1.50888558       5.07178833      -0.91183490       1.06177568      -1.11945701
Nb       3.36152840       3.15631363       0.09110917      -0.51505882       0.45301315      -0.42443275
Nb       4.79479085       4.83345664       1.73727055       0.48836908       0.82585061      -1.04286575
Nb       3.28758250       3.32108858       3.33677189      -0.00157467      -0.17801662       0.35483596
Nb       5.09593805       5.07054674       4.90482127      -0.97917736      -0.76654088       0.47520435
16
Lattice="6.62 0.0 0.0 0.0 6.62 0.0 0.0 0.0 6.62" Properties=species:S:1:pos:R:3:forces:R:3 group=Nb_rattle10_b1 composition=Nb energy=-159.54244995117188 pbc="T T T"
Nb      -0.13421394      -0.15051492       0.15859901       0.92694837       1.25884891      -0.65702504
Nb       1.70742019       1.72568700       1.75552203      -0.48116830      -0.44257048      -0.55434442
Nb      -0.02513578       0.00040029       3.23956279       0.25376639       0.09608310       0.37847447
Nb       1.78001395       1.69174268       5.00170287      -0.44283411      -0.05046964       0.05870553
Nb      -0.15567612       3.46152009      -0.05980725       0.26152021      -0.99267083      -0.12880468
Nb       1.71489072       4.89226926       1.65701020      -0.64325166       0.49847353       0.14405978
Nb      -0.07655000       3.31341011       3.10797879       0.42452592       0.04294714       0.87678510
Nb       1.45699038       5.01493148       5.00490983       0.57525140      -0.08305076      -0.38453913
Nb       3.34888748      -0.04937866       0.03792107      -0.69544840       0.63239723      -0.40105861
Nb       4.89998758       1.64800695       1.71015553       0.24805516       0.02907969      -0.64438087
Nb       3.23401587      -0.01957958       3.24394096      -0.00817931       0.15837252       0.58263445
Nb       5.06140464       1.62256545       4.90078302      -0.16937220       0.33578855       0.35188025
Nb       3.17421915       3.39753902       0.04742748       0.44631124      -0.51477820      -0.81733984
Nb       4.90231751       5.00927493       1.62222233       0.00632945      -0.29900011       0.36819211
Nb       3.41436807       3.34047978       3.19942892      -0.49478894      -0.05710808       1.12588680
Nb       4.89784766       5.11877912       4.93807412      -0.20766531      -0.61234277      -0.29912594
16
Lattice="6.62 0.0 0.0 0.0 6.62 0.0 0.0 0.0 6.62" Properties=species:S:1:pos:R:3:forces:R:3 group=Nb_rattle18_b2 composition=Nb energy=-153.95362854003906 pbc="T T T"
Nb       0.05790970       0.10551912      -0.04007180       0.63486093       2.02454615       2.12597013
Nb       1.78816513       1.63108135       1.64233762      -0.05664322       0.62425113      -0.09033352
Nb       0.02995204      -0.20070416       3.34990237       0.95231599       3.23405886      -1.28455687
Nb       1.63884939       1.92449413       4.79970680      -0.75494641      -6.89706326       5.67457199
Nb       0.18521868       3.53211867       0.24982445      -1.30911779      -2.60336924       0.02059606
Nb       1.40628402       5.09467043       1.82062537       2.91627812      -1.23084497       0.34677464
Nb       0.11788189       3.13459120       3.70287070      -4.26777411       1.93329525      -3.52125764
Nb       1.57393459       5.03610466       5.29171495       2.65736818       0.50666165      -1.39278913
Nb       3.42370357      -0.18848614       0.07627532      -1.00001311       0.41700774       0.64799267
Nb       5.17228280       1.68548829       1.72017856      -0.74284971       0.22224729       0.17628278
Nb       3.35230111       0.10395274       3.31999261      -1.61195517      -2.33933640      -1.31063104
Nb       4.70368845       1.11321872       4.94280640       2.47204208       3.91905332       1.30402303
Nb       3.51829718       3.26198122       0.05197840       0.05358041       0.25527799       0.70469224
Nb       4.90329869       4.99756141       1.79399083      -0.17498836      -0.99428570       0.40583256
Nb       3.17893824       3.19799949       3.87885986       5.27107525       4.47035074      -4.47221804
Nb       5.55680176       5.16706230       5.02311026      -5.03923416      -3.54185057       0.66504997
16
Lattice="6.62 0.0 0.0 0.0 6.62 0.0 0.0 0.0 6.62" Properties=species:S:1:pos:R:3:forces:R:3 group=Nb_rattle18_b2 composition=Nb energy=-156.33880615234375 pbc="T T T"
Nb      -0.17865367       0.58706115       0.11596939       5.33725977      -7.88725185      -3.72748852
Nb       1.48565296       1.72406353       1.76956487       2.48036528      -0.04010135      -0.21426058
Nb       0.01051274      -0.03258304       3.19407929       0.06953135      -0.40575361       1.36328793
Nb       1.65378678       1.65608994       4.97418635       0.49773160      -0.33601484       0.29208812
Nb      -0.23453439       3.39903533      -0.06185095       2.04937935       2.41731977       0.01144022
Nb       1.73907438       4.87333089       1.62145500      -0.85869968       1.23760581       0.51706785
Nb       0.14025602       3.14743729       3.41559134      -0.76459289       1.44517422       0.16148588
Nb       1.69065054       4.84996733       4.96297509      -0.12424013       1.20267749       0.00037694
Nb       3.40444628       0.05398821       0.05695585      -1.38339412      -0.45252287       0.07482241
Nb       5.26816560       1.71140653       1.57029601      -5.63992023       2.63639307       5.45839977
Nb       3.25820819       0.15487793       3.29754908       0.49718082      -0.57612538       0.06147647
Nb       4.88109889       1.79068464       5.34775593      -1.92150593       0.27455264      -4.33712959
Nb       3.09413011       3.37009772       0.15063833       0.92149460      -0.24322598      -0.51342857
Nb       5.00851956       5.02146418       1.56972868      -0.03933149      -0.03396502       0.40435714
Nb       3.56458333       3.24625020       3.39356905      -0.72792482       0.32544518      -0.28199127
Nb       5.03861021       5.06055707       4.79714231      -0.39333272       0.43579111       0.72949648
16
Lattice="6.62 0.0 0.0 0.0 6.62 0.0 0.0 0.0 6.62" Properties=species:S:1:pos:R:3:forces:R:3 group=Nb_rattle18_b2 composition=Nb energy=-157.6273956298828 pbc="T T T"
Nb       0.05579231       0.31295609       0.15456287      -1.21996582      -2.20277429      -1.64452612
Nb       1.87921244       1.46772261       1.39404489      -0.28057384       2.00791192       2.54523468
Nb       0.10193462      -0.21944768       3.18294462      -0.60283303       2.22014380       2.21663427
Nb       1.64185923       1.69067348       4.99079568       0.18907492      -0.28983983      -1.17741740
Nb       0.02869612       3.07094559       0.03411012       0.33926213       1.65848756      -0.19972962
Nb       1.57815818       5.03031383       1.68078489       0.74627382      -1.69126284      -0.59676087
Nb      -0.06110609       3.36746762       3.30921653       0.68393493      -1.29113770       0.48229942
Nb       1.88437758       4.91406158       5.16349379      -2.55867410      -0.04849330      -0.67617512
Nb       3.24339927      -0.25473103       0.05438746       1.78467464       1.06594682      -0.07156773
Nb       4.87626307       1.69978881       1.55563122       0.29986537      -0.66051865       1.77145565
Nb       3.20402793      -0.08793383       3.33918969       0.97570378       0.81393629       0.09727585
Nb       4.83641382       1.76653379       5.02255824       0.54966813      -1.34536278      -1.49377382
Nb       3.48464651       3.22492141      -0.01482710      -1.08940065       0.67880136       0.81752682
Nb       5.23437459       4.95078551       1.73858293      -1.77411389      -0.00378147      -1.05478084
Nb       3.24394453       3.59377498       3.34608467       0.22977477      -1.58178520      -0.78013355
Nb       4.88083939       4.94429895       5.06753603       1.72732961       0.66972816      -0.23556286
16
Lattice="6.62 0.0 0.0 0.0 6.62 0.0 0.0 0.0 6.62" Properties=species:S:1:pos:R:3:forces:R:3 group=Nb_rattle18_b2 composition=Nb energy=-157.35240173339844 pbc="T T T"
Nb       0.29022229       0.02974375      -0.00910009      -1.63179934      -0.16210952       0.74997497
Nb       1.72223753       1.82629537       1.82442702      -0.26157761      -0.52482682       0.02957960
Nb      -0.08426088      -0.13459509       3.31353186       0.41837192       0.26965007      -0.58034092
Nb       1.78377487       1.53315488       4.98981181      -0.02410153       0.49135593      -0.56187254
Nb       0.15386258       3.23883311      -0.01653533      -0.50816149       0.66077071       0.30896965
Nb       1.97801571       5.12067788       1.70917401      -5.02844477      -2.51962996      -1.17948103
Nb      -0.01748176       3.11411015       3.41494554      -0.22902888       1.24245858      -0.31617716
Nb       1.58378683       5.09772673       4.88437903       0.04483795      -0.96524954       0.90408814
Nb       3.18842540       0.03741818       0.27189760       1.50874281       1.17406797      -2.63662958
Nb       5.00923910       1.59704620       1.73463626       0.15787196       0.32464972      -0.08456717
Nb       3.40632984      -0.28232824       3.20117202       0.32283795       4.03981304       2.65361881
Nb       5.05475804       1.65624400       5.07629964      -0.36939558      -0.16503456      -0.27376071
Nb       3.29743450       3.10746053       0.00931896       0.17170805       0.87158597      -0.42875591
Nb       4.65460283       4.86535375       1.58053739       3.86575127      -0.89632434      -1.01027846
Nb       3.21001343       3.56796886       3.37364153       0.92015857      -2.63887072       1.23756504
Nb       4.89551911       5.17426316       4.97725893       0.64223152      -1.20230579       1.18806732
54
Lattice="9.93 0.0 0.0 0.0 9.93 0.0 0.0 0.0 9.93" Properties=species:S:1:pos:R:3:forces:R:3 group=Nb_rattle10_b9 composition=Nb energy=-538.0736083984375 pbc="T T T"
Nb       0.10571325      -0.05003576       0.05114464      -0.90372437      -0.27650678       0.05073176
Nb       1.52087443       1.61365405       1.57738545       0.88083100       0.01580936       0.76693964
Nb      -0.01357596       0.09830326       3.36484343       0.20105822      -0.73864555       0.15491615
Nb       1.69734849       1.77505689       4.86252100       0.27279654      -0.79934919       0.73034590
Nb       0.10023644      -0.07272889       6.65840752      -0.11685707       0.21853307      -0.40798086
Nb       1.71855388       1.53427573       8.53320812      -0.54266351       0.04696506      -1.74997032
Nb       0.02509213       3.30993866       0.04363640      -0.50278699       0.40280181      -0.50036192
Nb       1.68956298       4.94414754       1.70846752      -0.11188893       0.54404074      -0.34218097
Nb      -0.01746334       3.27309089       3.27026970      -0.30767274       0.31846109       0.11721902
Nb       1.50334388       5.04819071       4.90346841       0.60184777      -0.63070267       0.99444467
Nb       0.00290881       3.10960127       6.58746442       0.47385818       0.60951710       0.15930527
Nb       1.80384679       5.07863765       8.40404299      -1.17547464      -0.39945915      -0.60957122
Nb      -0.21724117       6.63607916      -0.00522279       0.91477042      -0.10097921      -0.02582519
Nb       1.62694988       8.34406050       1.70834566       0.09597281      -0.65009874       0.00767520
Nb      -0.00437588       6.63610160       3.50805824       0.00378346       0.27973628      -1.10464549
Nb       1.78522690       8.11300309       5.03018330      -0.52356219       1.05544162       0.11691486
Nb      -0.02132610       6.63539879       6.72096661       0.13353419      -0.10450119       0.03405637
Nb       1.71008671       8.44878722       8.28017744      -0.44297916      -1.19020355       0.27789867
Nb       3.48492318      -0.12439096       0.02337477      -0.12720233       0.36777973       0.40918708
Nb       4.93164182       1.58663648       1.69910625      -0.06601238       0.46170577      -0.02511142
Nb       3.26724699      -0.11747163       3.30972683       0.35086867       0.64317483       0.34617534
Nb       5.12816124       1.72615929       5.06047500      -0.81607479      -0.30397138      -0.67763835
Nb       3.32966880      -0.06958942       6.76136559       0.09278637       0.56416333      -1.02568233
Nb       5.08465767       1.61208343       8.22505106      -0.39924100       0.12964566       0.61114937
Nb       3.09602304       3.12769866      -0.13063027       1.63087904       1.15109873       1.33156419
Nb       5.04757385       5.00977764       1.69953540      -0.78693789       0.02296185      -0.30510160
Nb       3.09345991       3.41295766       3.36827082       1.08531988      -0.44413429      -0.47508353
Nb       4.87348870       4.99903821       4.87405830       0.30953383      -0.29456815       0.59388208
Nb       3.43529406       3.21260310       6.71927406      -0.82017422       0.26762566      -0.59320188
Nb       4.76621980       4.99277929       8.30471051       0.97242129       0.02079409       0.02559770
Nb       3.30131867       6.68914913      -0.02585319       0.01565463      -0.13508156       0.85693467
Nb       5.12595862       8.34783131       1.66119180      -0.29837710      -0.44833380      -0.08722611
Nb       3.36069204       6.70032847       3.42387913      -0.09601726      -0.33043665      -0.97198969
Nb       5.03844473       8.18364135       5.00962127      -0.30378848       0.75254112      -0.09773873
Nb       3.29280447       6.59002999       6.64231871       0.06877743      -0.16787273      -0.08963093
Nb       4.88901165       8.23515752       8.24621861       0.80334139      -0.08742806       0.24690759
Nb       6.71562658       0.17177018      -0.06305931      -0.03216505      -0.41060901       0.55623591
Nb       8.43485093       1.68068358       1.67487711      -1.07512069      -0.09007373      -0.27669412
Nb       6.66831899      -0.05074725       3.25679410      -0.13106182       0.45047635       0.17495936
Nb       8.27894868       1.54459787       4.96250092      -0.05172056       0.52685344      -0.03948714
Nb       6.58163958       0.03671730       6.56827020       0.25703984      -0.22029561       0.06798105
Nb       8.36106253       1.55061842       8.18495222      -0.05056825       0.48639232       0.40442973
Nb       6.51028070       3.48622789      -0.03197611       0.29282403      -0.65948308       0.03841759
Nb       8.24935026       4.96827568       1.62165557       0.24642265      -0.36575538       0.20215578
Nb       6.46900001       3.32154135       3.25176783       0.50764441      -0.13802329       0.19111192
Nb       8.35108524       4.90657383       4.79856972      -0.70896077      -0.23278940       0.73848367
Nb       6.55909237       3.36837812       6.76838481       0.30287904       0.18881865      -0.81468213
Nb       8.33740898       4.83846491       8.02656441      -0.05959532       0.44511279       0.78566879
Nb       6.79130633       6.57816116       0.05571195      -0.81191134       0.24327657      -0.58100784
Nb       8.26835632       8.14081164       1.78767052       0.28945962       0.73385537      -0.29593548
Nb       6.64528677       6.66634527       3.41030728      -0.02860345      -0.39424413      -0.28483942
Nb       8.29643272       8.29018989       5.03331665       0.26186141       0.15884766      -0.05199938
Nb       6.67444969       6.78963786       6.59726196      -0.15054710      -1.08218920       0.40205055
Nb       8.17890292       8.39456896       8.30329391       0.37552279      -0.41069454       0.04024594
54
Lattice="9.93 0.0 0.0 0.0 9.93 0.0 0.0 0.0 9.93" Properties=species:S:1:pos:R:3:forces:R:3 group=Nb_rattle10_b9 composition=Nb energy=-537.3324584960938 pbc="T T T"
Nb      -0.21896779      -0.00031460       0.00387554       0.98439783      -0.10593993       0.19281015
Nb       1.53881713       1.75561667       1.56302043       0.69091308      -0.86444771       0.46656066
Nb      -0.16224209      -0.14898598       3.20915244       1.08400846       0.76008409       0.86573052
Nb       1.72675383       1.57947294       5.00368473      -1.11426151       0.64308375      -0.42589265
Nb      -0.08015870       0.04329026       6.83379225       0.93242103       0.08507345      -2.07316160
Nb       1.82408964       1.59787633       8.19520326      -0.94301569       0.69639254       0.54918969
Nb       0.05576929       3.29046652       0.08896997      -0.50296819       0.30168015      -1.39267695
Nb       1.68049213       4.83562322       1.64735771      -0.67760611       0.86634171      -0.42371455
Nb      -0.00116641       3.30775183       3.34806015       0.00403047      -0.02854875       0.14682218
Nb       1.60072085       4.97474436       4.79507127      -0.15555078       0.14872366       1.28790486
Nb      -0.06317431       3.44220994       6.50050362       0.89269811      -0.86905026       1.16514933
Nb       1.70982871       4.93597182       8.24025973      -0.37351537       0.18519358       0.17964891
Nb      -0.10373304       6.59364626       0.06226643       0.41324261       0.02495910       0.11595686
Nb       1.68932537       8.40979599       1.63017090      -0.51498723      -0.40017074       0.02183850
Nb      -0.17253300       6.69548940       3.43022656       0.49046281      -0.68600225      -1.23394120
Nb       1.66276654       8.12776196       4.92128874      -0.07766241       0.84505504      -0.09009288
Nb      -0.12123981       6.84791733       6.56793519       1.58501625      -1.77622569       0.08022773
Nb       1.58869833       8.34489998       8.19094332       0.52955937      -0.55454910       0.59409332
Nb       3.23449158      -0.08411583      -0.14174203       0.33064920       0.29777089       0.71106094
Nb       4.96550194       1.69397207       1.78742296      -0.28671083      -0.38037196      -0.24846058
Nb       3.17330162       0.21005059       3.31275394       0.45426336      -0.72555280      -0.43029934
Nb       4.95993124       1.74987925       4.91814270       0.03347557      -0.28419927       0.15702745
Nb       3.16238939       0.09690593       6.51053915       0.94497913      -0.79256028       0.36184946
Nb       4.95553244       1.64238462       8.38253713       0.32109216      -0.28717375      -0.35131365
Nb       3.31540231       3.19783274       0.08503045       0.09482540       0.42794943      -0.31570521
Nb       4.96212512       5.00270261       1.65312928       0.23937865      -0.16941240      -0.24121955
Nb       3.21586072       3.53345035       3.37642833       0.61490756      -1.47817934      -0.28155440
Nb       4.94238981       5.02844779       4.74697478       0.35221723      -0.26049092       1.31752264
Nb       3.30160028       3.30829183       6.67017808       0.16633433       0.38496438      -0.24988729
Nb       4.91588307       5.06783158       8.30308642       0.07745677      -0.51906782      -0.30197972
Nb       3.26392336       6.66156428       0.19595623      -0.20854372      -0.19266096      -0.92040384
Nb       4.94603359       8.26989085       1.67613759      -0.23735914       0.31748930       0.27324665
Nb       3.16306473       6.48266991       3.23408633       0.32009244       1.21605027       0.08635624
Nb       4.76467610       8.29468171       5.03667996       0.42655349       0.07279924      -0.50833619
Nb       3.24131485       6.61536941       6.64930889       0.09937245      -0.11692443      -0.02557604
Nb       4.94490857       8.27651531       8.28917102       0.00929350       0.13051981      -0.13236165
Nb       6.66012816      -0.03151664       0.19054204      -0.43746790       0.28518680      -1.05651033
Nb       8.48017356       1.73721985       1.75181078      -1.10172558      -0.22695783      -0.49413675
Nb       6.72408030       0.02650230       3.24908474      -0.93329751       0.16829303       0.82206196
Nb       8.30406544       1.66583648       5.03172059      -0.15918794      -0.30981559      -0.21696182
Nb       6.50044764      -0.14894200       6.58075371       0.19124028       0.46212530       0.14028841
Nb       8.37543797       1.51087195       8.16134513      -1.25279164       1.44427931       0.98872674
Nb       6.45191937       3.17935489       0.10108316       0.95364690       0.48046714      -0.67906773
Nb       8.26921282       4.88735061       1.59554912      -0.29589349       0.59825438       0.20559558
Nb       6.66485174       3.25918631       3.22820283      -0.04904811       0.43992668       0.56736290
Nb       8.41640013       4.92240001       5.13109683      -1.46281958       0.27746868      -1.11544526
Nb       6.50601542       3.16823089       6.61420429       0.26569119       0.52549016       0.21444878
Nb       8.32143903       5.01285291       8.20384995      -0.44872093      -0.55288899       0.58884263
Nb       6.44541878       6.64264172      -0.14068216       0.80218107      -0.14739035       0.49909133
Nb       8.12195089       8.35276305       1.72511604       0.40899909      -1.35982966      -0.67887574
Nb       6.48960348       6.64863338       3.39629980       0.38980865      -0.05250175      -0.50554204
Nb       8.29063443       8.20819348       4.94154675      -0.99201226       0.99016130       0.04765989
Nb       6.66246592       6.61684005       6.53988347      -0.67298502      -0.28785902       0.22029337
Nb       8.48575706       8.18628068       8.16464105      -2.20507622       0.35298839       1.52574956
54
Lattice="9.93 0.0 0.0 0.0 9.93 0.0 0.0 0.0 9.93" Properties=species:S:1:pos:R:3:forces:R:3 group=Nb_rattle10_b9 composition=Nb energy=-537.7952880859375 pbc="T T T"
Nb       0.04986310      -0.14408986      -0.13058884      -0.70747268       0.88233954       0.67820466
Nb       1.65074551       1.82603116       1.55214204      -0.33010453      -1.07269394       0.37978303
Nb      -0.12712933      -0.01727080       3.37821818       0.71960717      -0.16490401      -0.90776932
Nb       1.56819629       1.69221692       4.78646077       0.43082261      -0.36463827       0.53714281
Nb      -0.09679991       0.07430867       6.59609083       0.76562566      -0.49201316       0.52589214
Nb       1.54923502       1.65180261       8.27393480       0.29952782       0.16191405      -0.47098657
Nb       0.02846441       3.28154152       0.05455338      -0.32582352       0.34506601      -0.44527745
Nb       1.74776576       5.00492293       1.52557279      -0.51752424      -0.11508679       0.21135849
Nb      -0.12075595       3.35838499       3.32645523       0.58359760       0.02416337      -0.37583983
Nb       1.66285304       4.97047006       4.86352870      -0.11605087      -0.20855772       0.03446219
Nb      -0.01304685       3.21409236       6.66086963       0.62517792       0.25703141       0.14362971
Nb       1.56154945       5.10175518       8.05548279       0.38917732      -0.88539207       1.06892061
Nb      -0.03720270       6.90878909       0.07708637      -0.24960133      -1.71239710      -0.75973409
Nb       1.51685609       8.19375365       1.63882851       1.06544912       0.81199253       0.59069520
Nb      -0.00479119       6.59698553       3.38560753      -0.14152411      -0.17806622      -0.01645353
Nb       1.66524868       8.29664712       4.91430889       0.02336404       0.22869898       0.28215250
Nb      -0.01397922       6.46570716       6.60092676      -0.05853069       1.23182654       0.02577946
Nb       1.66895954       8.24424601       8.39545718       0.30145830       0.00247040      -0.97669905
Nb       3.31209441       0.13633369      -0.19096714      -0.18694413      -1.00032091       1.01123309
Nb       5.05899590       1.62243161       1.54386362      -0.73062408       0.19031933       0.54341638
Nb       3.30638847       0.02802194       3.20167192      -0.11060053      -0.10233993      -0.02758770
Nb       4.88199372       1.66217267       5.09271893       0.33165056      -0.00927318      -0.98394835
Nb       3.38516063       0.01974245       6.71963962      -0.64048254      -0.23651394      -0.42620367
Nb       4.99316141       1.56245816       8.39563854       0.34299254       0.69284052      -0.96038699
Nb       3.30833877       3.21155997      -0.09480582      -0.09536426       0.49134451      -0.14460976
Nb       4.97358645       5.01774362       1.44999184       0.11065630      -0.99378026       1.46537876
Nb       3.20184896       3.25122826       3.24219335       0.63821065       0.28310812      -0.15263511
Nb       4.86389851       5.04107052       4.93268234       0.66895825      -0.28648561      -0.16779450
Nb       3.37050307       3.26956354       6.40362881      -0.50469351       0.21258172       0.96184987
Nb       4.84000278       4.91428090       8.27007197       0.41307634      -0.23634189      -0.60628450
Nb       3.40777734       6.45368903       0.03227594      -0.98290682       1.17806900      -0.69396508
Nb       4.96458287       8.27315576       1.54818445      -0.43205538       0.42767468       0.31208944
Nb       3.29079934       6.59024246       3.33721472       0.01828688       0.29752594      -0.41865900
Nb       4.90596668       8.32218561       4.96965405       0.27232561      -0.07080484      -0.13744301
Nb       3.23233070       6.61883132       6.55645147       0.36044496       0.28401256       0.26984942
Nb       5.05889752       8.19682369       8.25792829      -0.51476496       0.23287924      -0.18276660
Nb       6.71121030       0.01759315      -0.04985187      -0.03033167      -0.33753976       0.10707382
Nb       8.14344424       1.62248609       1.77696720       1.21382427      -0.03565340      -1.01333284
Nb       6.64051339       0.08149250       3.17949934      -0.56297010      -0.84968323       0.64379102
Nb       8.39004303       1.67169472       4.91525091      -0.59995061      -0.01173899       0.05775806
Nb       6.64400817       0.14087603       6.37286704      -0.22395912      -0.53324878       0.80148876
Nb       8.16483079       1.74095274       8.23087448       0.34183997      -0.28335541       0.45325708
Nb       6.64163485       3.32437733       0.08390072       0.11179596       0.04333493      -0.65448236
Nb       8.33498413       4.88085699       1.62817020      -0.14950213       0.29996556       0.23958120
Nb       6.61860780       3.20164129       3.34584741      -0.61422700       0.75679064       0.07225586
Nb       8.32971475       4.82370856       5.14927499      -0.26408488       1.11161304      -1.43033373
Nb       6.81769195       3.35740602       6.52463578      -1.56277215      -0.34016943       0.66700286
Nb       8.20080749       5.07048783       8.24620701       0.35768864      -0.48489067       0.91233474
Nb       6.54597981       6.60870746       0.06003291       0.53393912      -0.09541115      -0.47029957
Nb       8.19282560       7.99946233       1.80310285       0.16296077       1.37766981      -0.25018701
Nb       6.50175140       6.63643277       3.21679308       0.19421004      -0.45464483       1.09272802
Nb       8.39289616       8.37644095       5.09686194      -0.72352809      -0.94239485      -0.52265871
Nb       6.69892891       6.56142962       6.68707351      -0.83423996       0.28684250      -0.85077691
Nb       8.02423280       8.26037614       8.25915453       0.93396473       0.38626519      -0.04199401
54
Lattice="9.93 0.0 0.0 0.0 9.93 0.0 0.0 0.0 9.93" Properties=species:S:1:pos:R:3:forces:R:3 group=Nb_rattle10_b9 composition=Nb energy=-535.17236328125 pbc="T T T"
Nb       0.02278093      -0.21041120       0.03910663      -0.20894165       0.97887152      -0.05018721
Nb       1.66440580       1.76870332       1.55804844      -0.10342164      -0.66765982       0.31206694
Nb      -0.07359032       0.04288281       3.17016859       0.69900465      -0.02978642       0.57609570
Nb       1.80229930       1.58389721       5.05286111      -0.51877868       0.48708990      -0.98529553
Nb      -0.04534944      -0.08889614       6.59842945      -0.48144257      -0.01123975      -0.43380809
Nb       1.70399411       1.47606652       8.17988596      -1.36016107       1.41095424       1.19426918
Nb      -0.13090494       3.37405475      -0.04946312       0.25813320      -0.76157492      -0.48282468
Nb       1.75280256       4.88542151       1.59939292      -1.45006216       1.71592188       0.85704005
Nb       0.08551053       3.32413590       3.43646215       0.10065848      -0.27660295      -0.47567832
Nb       1.57842046       5.01555047       4.89799939       0.38869220      -0.25635841       0.26084384
Nb      -0.09685933       3.24543516       6.50817212       0.45906448       0.00318703       0.59956163
Nb       1.90532836       4.78842320       8.29523993      -3.32829213       2.00189900      -0.75484627
Nb      -0.15272708       6.57493318       0.19034007       1.15075099      -0.21811663      -1.57366109
Nb       1.73837998       8.29347465       1.64114296      -0.39540809      -0.27389881       0.08365753
Nb      -0.09533383       6.52150250       3.26930323       1.23258293       0.36643887       0.51701880
Nb       1.87075101       8.20824886       5.09529555      -1.42294502       0.48583332      -1.50520682
Nb       0.18589205       6.55533460       6.59357813      -0.85003650       0.32949618       0.40464184
Nb       1.75632336       8.37479154       8.23338496      -2.30639029      -1.20946848       0.69202912
Nb       3.38110059      -0.09145369      -0.14785749      -0.50637066       1.38123047       1.96669579
Nb       5.13473535       1.73421217       1.42720518      -1.71770310      -0.55249482       1.55086505
Nb       3.23786570      -0.08441183       3.23788690       0.59207153       0.85772991      -0.02981165
Nb       5.03852823       1.45775901       5.07586191      -1.54579902       1.88701904      -1.94619310
Nb       3.12703596       0.00804203       6.74772679       1.93361068       0.20749813      -1.72096241
Nb       4.89628001       1.60088814       8.28024177       0.11980042       0.78706753       0.06490627
Nb       3.08471392       3.58112806       0.05912139       2.72502160      -2.69684434      -0.11525542
Nb       5.03683486       4.89921681       1.69395868      -0.10258561       1.02877688      -0.55800486
Nb       3.36598525       3.58564573       3.21322463       0.15296809      -1.89111245       1.18573880
Nb       4.82236924       5.15312571       5.02063380       0.42902696      -0.90252155      -0.24795215
Nb       3.18236628       3.37714854       6.76000314       1.19995439      -1.09805465      -1.90222168
Nb       5.01517496       4.93131678       8.08777488       0.31967163       0.04352084       0.68652683
Nb       3.29654856       6.77420506      -0.26822996      -0.23729908      -1.40815556       1.79768884
Nb       4.97349047       8.15259669       1.61395381       0.27872655       0.60487950       0.27247894
Nb       3.35307461       6.67995474       3.22862543      -0.18850163      -0.19186491      -0.03671241
Nb       5.02570202       8.22340656       4.87262343      -0.40097681       0.24561945       0.40792409
Nb       3.20937430       6.70236081       6.67649817       1.01859546      -0.71923947      -0.43782651
Nb       4.80528211       8.35441771       8.33866865       2.27001524      -0.33207878      -1.34157526
Nb       6.57805674       0.05565439       0.07940484       0.57081598      -0.87250137      -0.33858398
Nb       8.14165413       1.77925327       1.72000430       1.03247094      -0.88617182      -0.43493533
Nb       6.72146240      -0.11195863       3.36589630      -0.72353613       0.88124627      -0.88736653
Nb       8.32687263       1.77820090       4.86450779      -0.14727563      -0.59524941       0.13972796
Nb       6.46086350       0.16316306       6.45682543       1.48591530      -1.91365075       1.55328810
Nb       8.21790687       1.43760990       8.27486920       0.36848781       0.65468836       0.12519452
Nb       6.53734652       3.29754031       0.03647110       0.52204430       0.67805147      -1.37329388
Nb       8.40365012       4.81725883       1.65593824      -0.58437985       0.48214447      -0.20273745
Nb       6.67551119       3.44156962       3.14487037      -0.56382310      -0.60826451       1.65568984
Nb       8.15498503       5.11023412       5.00371357       0.53901184      -1.00241661      -0.00032674
Nb       6.64177145       3.15652072       6.58823296      -0.26911414       0.76345670       0.05303675
Nb       8.33456298       5.02761694       8.03668672      -0.01334643      -0.38430181       1.06153941
Nb       6.43541009       6.59188177       0.00269481       0.86189389      -0.16604359      -0.27824885
Nb       8.38208872       8.11427236       1.74090602      -0.84845614       0.98380160      -0.61825144
Nb       6.81580597       6.63373299       3.35109556      -1.44548869      -0.54497474      -0.81728280
Nb       8.17596832       8.25558216       4.83742491       1.34559476       0.53116000       1.47308588
Nb       6.62462917       6.59657254       6.57039350      -0.23358652       0.82677728       0.56795883
Nb       8.21533795       8.25292328       8.36107319      -0.10046145      -0.15371162      -0.51052046
16
Lattice="6.62 0.0 0.0 -0.00982507825781407 6.62 0.0 0.0 0.0 6.62" Properties=species:S:1:pos:R:3:forces:R:3 group=Nb_strain_shear_b0 composition=Nb energy=-160.27227783203125 pbc="T T T"
Nb      -0.03206683       0.03599558      -0.02987125       0.13883327      -0.15261197       0.28089771
Nb       1.62602882       1.68298608       1.65806472      -0.00138491      -0.13774772      -0.08225114
Nb      -0.04449743      -0.04792568       3.32755948       0.16278727       0.21270388      -0.15359052
Nb       1.64077686       1.58690344       4.94726282      -0.01802588       0.37451431       0.08053795
Nb      -0.04709388       3.29590057       0.03559252       0.15484178       0.06877756      -0.04470035
Nb       1.64920363       4.97215768       1.66413333      -0.00286415       0.02728458      -0.15129977
Nb      -0.02775490       3.30501569       3.34211462       0.06930479      -0.12123464      -0.05435659
Nb       1.57290182       5.00579254       4.93217701       0.33558661      -0.25015771       0.21228948
Nb       3.34667513       0.02621703       0.00956011      -0.21899948      -0.16048533       0.02314804
Nb       4.94407979       1.56646583       1.70350542       0.05601752       0.32958579      -0.14300683
Nb       3.31251861       0.03976378       3.33648938      -0.12889811      -0.26316911      -0.08277916
Nb       4.95117636       1.68740236       4.96984039       0.00384167      -0.02041984       0.01772161
Nb       3.31862222       3.31254954      -0.04351936      -0.18075600       0.08797021       0.09590699
Nb       4.95540486       4.91978963       1.71411056      -0.08200240       0.03690538      -0.23026083
Nb       3.27966497       3.28818576       3.27691944      -0.03283578       0.13381973       0.16318035
Nb       4.96937773       4.99406122       4.97941211      -0.25544637      -0.16573507       0.06856315
16
Lattice="6.62 0.0 0.0 0.0 6.62 0.0 0.0 -0.03609322736356358 6.62" Properties=species:S:1:pos:R:3:forces:R:3 group=Nb_strain_shear_b0 composition=Nb energy=-160.3062744140625 pbc="T T T"
Nb      -0.00567094      -0.02141818       0.01960086      -0.07090484       0.10188763      -0.15544835
Nb       1.70051110       1.64131830       1.64317963      -0.07665915       0.11494986      -0.02426220
Nb       0.02808133       0.04330503       3.32390354      -0.05687527      -0.17230015       0.07554325
Nb       1.68885253       1.65456285       4.95582948      -0.14137715      -0.15302764       0.09752177
Nb       0.01507851       3.33387109      -0.02624314      -0.00318539      -0.08842480       0.12950659
Nb       1.65824845       5.01391587       1.64508322      -0.03496563      -0.21593288       0.06781668
Nb       0.04903617       3.28593683       3.32374865      -0.10378212       0.06860149      -0.07913090
Nb       1.66520232       4.91165550       4.96126043      -0.06777444       0.20132297       0.05600125
Nb       3.30133007      -0.00576131       0.00292581       0.12257168      -0.02751157      -0.02669752
Nb       5.02186862       1.65912705       1.65955622      -0.05306202      -0.05753947      -0.02221615
Nb       3.34229343      -0.03008441       3.29563039      -0.09046662       0.09074590       0.08754677
Nb       4.89434608       1.64824067       4.95613676       0.33948290      -0.15758738       0.08139008
Nb       3.35239738       3.30230565       0.05257559      -0.14395943       0.05968615      -0.04590763
Nb       4.95248321       4.92830796       1.74155149       0.19720945       0.12272657      -0.26654664
Nb       3.30246904       3.30138021       3.32349662      -0.00132582      -0.07571484      -0.11194331
Nb       4.92909322       4.90157734       4.96150459       0.18507363       0.18811832       0.13682626
16
Lattice="6.996344448916121 0.0 0.0 0.0 6.996344448916121 0.0 0.0 0.0 6.996344448916121" Properties=species:S:1:pos:R:3:forces:R:3 group=Nb_strain_vol_b0 composition=Nb energy=-157.34408569335938 pbc="T T T"
Nb       0.00356580      -0.02285109      -0.04038951      -0.02673213       0.05598149       0.06341942
Nb       1.77294307       1.73167431       1.71745542      -0.00378406      -0.03294761       0.02737027
Nb      -0.05199012      -0.00869972       3.54229490       0.06193544       0.01327313      -0.08217429
Nb       1.76424886       1.74849513       5.24936375       0.00781837      -0.07488364      -0.00120826
Nb       0.00651166       3.53629216      -0.02973704      -0.02203858      -0.10368203       0.07417994
Nb       1.70757272       5.25796357       1.70492071       0.04972705       0.03943153       0.05790974
Nb      -0.02011485       3.49081975       3.51155964       0.03692973      -0.03454131      -0.05816511
Nb       1.73442557       5.17862584       5.26300720       0.03502318       0.15600406      -0.04135588
Nb       3.47627260       0.04387259      -0.04007307       0.05053896      -0.01914284       0.07906014
Nb       5.31527386       1.76098766       1.78059778      -0.12107754      -0.09738522      -0.07533407
Nb       3.48237843      -0.02003474       3.51313960       0.00318232       0.04623529      -0.05830815
Nb       5.25705562       1.77513276       5.18834576      -0.05514736      -0.09426975       0.09960190
Nb       3.48302370       3.58817365       0.05440153       0.02725559      -0.16535300      -0.08843158
Nb       5.23874709       5.15919606       1.79237721      -0.01900721       0.19906828      -0.08385682
Nb       3.45962295       3.48199883       3.45512744       0.04050049      -0.02470459       0.04751363
Nb       5.25618610       5.18475117       5.23172478      -0.06512365       0.13691631       0.03977904
16
Lattice="6.951055714941498 0.0 0.0 0.0 6.951055714941498 0.0 0.0 0.0 6.951055714941498" Properties=species:S:1:pos:R:3:forces:R:3 group=Nb_strain_vol_b0 composition=Nb energy=-158.0977325439453 pbc="T T T"
Nb       0.03721277       0.00031148      -0.01133267      -0.08463207      -0.03210945       0.07702821
Nb       1.68572097       1.73801431       1.72395073       0.11852554      -0.01758495      -0.01213900
Nb      -0.00657226       0.01448683       3.56355192      -0.03370097      -0.06484731      -0.18944596
Nb       1.71569623       1.69592799       5.16714316       0.08837250       0.09804304       0.08126321
Nb       0.03230703       3.46893163      -0.02822457      -0.04658510       0.03199309       0.06489787
Nb       1.71650913       5.21423408       1.77910806       0.06804645       0.01004633      -0.09011695
Nb       0.01134088       3.45507851       3.46794983      -0.05019438       0.06169398      -0.02213249
Nb       1.70130785       5.22064007       5.17717733       0.11819392      -0.06155601       0.08330097
Nb       3.45795019      -0.00064039      -0.04977667       0.06556246      -0.02902432       0.09963580
Nb       5.22777074       1.76271808       1.77369988      -0.09005210      -0.02823675      -0.06899110
Nb       3.48786270      -0.00228810       3.45440035      -0.01195976      -0.04499406      -0.03098205
Nb       5.19642336       1.75456415       5.25063105      -0.01503506      -0.04681030      -0.02260955
Nb       3.49065991       3.46566990       0.00768472      -0.00557443       0.03998786       0.00679150
Nb       5.23256390       5.24776276       1.69674318      -0.07499334      -0.05443022       0.05517221
Nb       3.47417809       3.42691521       3.46504542       0.02863648       0.08699620      -0.02008216
Nb       5.22230010       5.17723377       5.21790871      -0.07461015       0.05083292      -0.01159056
16
Lattice="6.968158843642312 0.0 0.0 0.0 6.968158843642312 0.0 0.0 0.0 6.968158843642312" Properties=species:S:1:pos:R:3:forces:R:3 group=Nb_strain_vol_b0 composition=Nb energy=-157.83900451660156 pbc="T T T"
Nb       0.03657302       0.01828970       0.01810398      -0.07195178       0.01362070      -0.03608175
Nb       1.72435251       1.72679992       1.76026501       0.06058375       0.06198273      -0.04212864
Nb       0.01261451       0.05250018       3.47114212      -0.04246021      -0.06650645       0.03496057
Nb       1.72406825       1.74649841       5.23199732       0.08506387       0.02936099       0.00655774
Nb       0.01331899       3.50978747      -0.05661501      -0.00307672      -0.05041505       0.08096856
Nb       1.70880005       5.23435858       1.73311497       0.09317300      -0.03321037      -0.01054934
Nb       0.02341991       3.49536207       3.46160314      -0.02576494       0.00577010       0.01003571
Nb       1.72276187       5.26181781       5.20471317       0.04805845      -0.05163210       0.05124584
Nb       3.45208516      -0.02473143       0.02939122       0.07389444       0.05764190      -0.02876552
Nb       5.20830526       1.76494815       1.77304577       0.01338315      -0.00736076      -0.06949402
Nb       3.46229513      -0.03994593       3.50716929       0.04318580       0.08712528      -0.01724736
Nb       5.26089267       1.71851109       5.19920151      -0.09682837       0.05622296       0.07741920
Nb       3.53792375       3.49523884      -0.00131063      -0.06649342      -0.03137991       0.00298685
Nb       5.26019607       5.22576864       1.76295043      -0.08468678       0.00932363      -0.02375330
Nb       3.52421919       3.51677487       3.48202713      -0.02714701      -0.06305481       0.01672598
Nb       5.21475390       5.23483896       5.26620743       0.00106665      -0.01748896      -0.05288075
16
Lattice="6.250291964158048 0.0 0.0 0.0 6.250291964158048 0.0 0.0 0.0 6.250291964158048" Properties=species:S:1:pos:R:3:forces:R:3 group=Nb_strain_vol_b0 composition=Nb energy=-153.9684600830078 pbc="T T T"
Nb       0.01468959       0.02827095      -0.02083110       0.04049477      -0.14449476       0.40856734
Nb       1.59205597       1.57081265       1.55264260       0.05992633      -0.11756736       0.10454190
Nb      -0.02930725      -0.03048940       3.13187088       0.57564378       0.43042168      -0.42427397
Nb       1.55789239       1.56045386       4.71004496       0.16663837      -0.13378954      -0.45513505
Nb      -0.01040872       3.14362826      -0.05885511       0.07806683      -0.26361072       0.54243380
Nb       1.60065387       4.70663363       1.53351796      -0.19953895      -0.18884805      -0.02490848
Nb       0.03982224       3.14884094       3.07839679      -0.11135638      -0.47096211       0.03835565
Nb       1.51936434       4.66892422       4.67632726       0.49682784       0.11421572       0.00342659
Nb       3.15321743      -0.04406616      -0.02697853      -0.11680627       0.33749387       0.21438387
Nb       4.71929038       1.56674188       1.57149974      -0.29296839      -0.04096907      -0.14843607
Nb       3.13097892      -0.07031082       3.14383789      -0.25158250       0.59548008      -0.26526326
Nb       4.69884560       1.49919758       4.67122981      -0.09020066       0.56899321      -0.07660181
Nb       3.13745413       3.11963330      -0.04889825       0.07918882      -0.12813258       0.32630318
Nb       4.70409299       4.68445418       1.55032132      -0.03271842      -0.11264461      -0.19038078
Nb       3.14958934       3.11701423       3.13977245      -0.07913744      -0.19860786      -0.19812402
Nb       4.72596211       4.67706296       4.66375940      -0.32247835      -0.24697810       0.14511077
16
Lattice="6.62 0.0 0.0 0.0 6.62 0.0 0.21074611430209156 0.0 6.62" Properties=species:S:1:pos:R:3:forces:R:3 group=Nb_strain_shear_b0 composition=Nb energy=-160.2858428955078 pbc="T T T"
Nb       0.03815479       0.02130103      -0.01874044      -0.23087677      -0.08855277       0.21739525
Nb       1.70363078       1.68475681       1.62894643      -0.04590631      -0.13458379       0.20758516
Nb       0.13885566       0.00314954       3.33722976      -0.13293631      -0.00893426      -0.09679234
Nb       1.82155176       1.61977219       5.00324843      -0.00327969       0.27064577      -0.28553694
Nb       0.03510994       3.31413909      -0.00863535      -0.18502668       0.06998241       0.08113296
Nb       1.74313637       5.00137702       1.66256255      -0.09329838       0.01438299       0.02338479
Nb       0.09657868       3.31284059       3.30707282       0.07705250       0.00955182       0.03745817
Nb       1.82478939       5.01153404       4.94790695      -0.06801277      -0.31173670      -0.01998572
Nb       3.31391729       0.01288284      -0.04826171       0.12700891      -0.03344250       0.35351339
Nb       4.98750881       1.66024543       1.69810236       0.17436880      -0.06390677      -0.18484414
Nb       3.45289289      -0.01024455       3.35299736       0.02102152      -0.02963119      -0.20312661
Nb       5.13248621       1.65471814       5.00287374       0.02067542       0.01452392      -0.04680377
Nb       3.25261895       3.32991349       0.02234416       0.22626132      -0.04920925      -0.08565222
Nb       5.04526730       4.96588710       1.65230406      -0.02891332       0.04996421       0.05438354
Nb       3.40962879       3.26183360       3.29158182      -0.03612498       0.17040540       0.14450085
Nb       5.09839490       4.90464739       5.02128361       0.17798710       0.12054087      -0.19661236
16
Lattice="6.62 0.0 0.0 -0.1278331054855606 6.62 0.0 0.0 0.0 6.62" Properties=species:S:1:pos:R:3:forces:R:3 group=Nb_strain_shear_b0 composition=Nb energy=-160.2952117919922 pbc="T T T"
Nb       0.00800920       0.01447729      -0.01900497      -0.05678560      -0.04650885       0.12156656
Nb       1.67041789       1.70281855       1.70048900      -0.12600690      -0.08643513      -0.08673834
Nb       0.02743143       0.00967103       3.28262956      -0.14744991       0.10730338       0.10759597
Nb       1.60658445       1.67635384       4.99945769       0.14779280      -0.07540706      -0.10596928
Nb      -0.03385883       3.33926226       0.04091299      -0.18525866      -0.02464093      -0.05826311
Nb       1.52487046       4.98080774       1.71725628       0.07995284       0.08858170      -0.34989458
Nb      -0.04738118       3.37127227       3.31678258      -0.14481398      -0.24096423       0.05189739
Nb       1.54249901       4.97851302       4.94923112       0.03847611       0.13275133       0.20773950
Nb       3.29806511       0.02428857       0.03000827       0.05322069      -0.02051110      -0.16502026
Nb       4.96567813       1.69043169       1.68404052      -0.04352582      -0.00293309      -0.08397024
Nb       3.31655468      -0.00570725       3.26972839       0.06625068       0.22053058       0.29111981
Nb       4.98975635       1.64786843       4.97672847      -0.18584670      -0.01190352      -0.01382497
Nb       3.20565702       3.32997856      -0.02312914       0.17437744      -0.02235118       0.15885234
Nb       4.81227634       4.98306084       1.66631822       0.17641547      -0.00407730      -0.17331018
Nb       3.23819477       3.36044403       3.34083711       0.07790162      -0.26281780      -0.02195869
Nb       4.84969893       4.92402201       4.95468696       0.07529998       0.24938315       0.12017804
16
Lattice="6.62 0.0 0.0 0.0 6.62 0.0 0.0 0.0 6.62" Properties=species:S:1:pos:R:3:forces:R:3 group=Nb_md600_b0 composition=Nb energy=-160.38023376464844 pbc="T T T"
Nb       0.00000000       0.00000000       0.00000000      -0.00000141       0.00000449      -0.00000203
Nb       1.65500000       1.65500000       1.65500000      -0.00000612      -0.00000755      -0.00000442
Nb       0.00000000       0.00000000       3.31000000       0.00000829       0.00000844       0.00002619
Nb       1.65500000       1.65500000       4.96500000      -0.00000390      -0.00000241      -0.00001750
Nb       0.00000000       3.31000000       0.00000000       0.00000931       0.00000685       0.00001249
Nb       1.65500000       4.96500000       1.65500000       0.00000998      -0.00002439      -0.00000929
Nb       0.00000000       3.31000000       3.31000000       0.00000370       0.00000764       0.00001498
Nb       1.65500000       4.96500000       4.96500000      -0.00001821       0.00000193      -0.00002421
Nb       3.31000000       0.00000000       0.00000000       0.00001052       0.00001039       0.00001168
Nb       4.96500000       1.65500000       1.65500000      -0.00002342       0.00000487      -0.00000855
Nb       3.31000000       0.00000000       3.31000000       0.00000855       0.00000899       0.00001135
Nb       4.96500000       1.65500000       4.96500000       0.00000331      -0.00001985      -0.00002123
Nb       3.31000000       3.31000000       0.00000000       0.00000787       0.00000933       0.00002140
Nb       4.96500000       4.96500000       1.65500000      -0.00000468      -0.00000627      -0.00000376
Nb       3.31000000       3.31000000       3.31000000       0.00000808       0.00000957       0.00000652
Nb       4.96500000       4.96500000       4.96500000      -0.00001200      -0.00001197      -0.00001358
16
Lattice="6.62 0.0 0.0 0.0 6.62 0.0 0.0 0.0 6.62" Properties=species:S:1:pos:R:3:forces:R:3 group=Nb_md600_b0 composition=Nb energy=-159.429443359375 pbc="T T T"
Nb      -0.12983029      -0.16450154       0.12770761       0.16281860       0.71115905       0.16515550
Nb       1.41895622       1.55411777       1.76945668       0.08910589      -0.01443462      -0.35446930
Nb      -0.14324488      -0.09291396       3.54353277       0.08598454       0.23318781      -0.78819031
Nb       1.60067154       1.55076778       5.02839535      -0.16258034       0.24853879       0.05797169
Nb      -0.15504334       3.30911446       0.03432437       0.44994694       0.02080768      -0.03887685
Nb       1.57416764       4.97709896       1.92764058      -0.38407654       0.23789904      -0.71515709
Nb      -0.14472415       3.13388147       3.38434463       0.43338752       0.88647902      -0.26670676
Nb       1.64282984       5.13780897       5.08318627      -0.10285616      -0.66702920      -0.15526085
Nb       3.29138711       0.00977805       0.20155588      -0.35069022      -0.08312780      -0.39299610
Nb       4.77717207       1.82684041       1.44408028       0.30289665      -0.74174452       0.68872517
Nb       3.38636853       0.16398720       3.39895571      -0.33783764      -0.45235196      -0.19911951
Nb       4.91979869       1.83643028       4.87476281      -0.54952240      -0.63902843       0.60205138
Nb       2.96244347       3.27844901      -0.14688847       0.52914888       0.34522903       0.37607580
Nb       4.88537924       4.90908072       1.73846504      -0.05784813       0.27444190       0.06129837
Nb       3.12404321       3.33139373       3.07855352       0.25505266      -0.12710020       1.12291014
Nb       4.87880299       5.00311197       5.06680797      -0.36293012      -0.23292547      -0.16341150
16
Lattice="6.62 0.0 0.0 0.0 6.62 0.0 0.0 0.0 6.62" Properties=species:S:1:pos:R:3:forces:R:3 group=Nb_md600_b0 composition=Nb energy=-159.62921142578125 pbc="T T T"
Nb      -0.29042460      -0.19577624       0.25082626      -0.54680753       0.44931284      -0.38226435
Nb       1.20038123       1.49017984       1.77221887       0.37388754       0.82911336       0.17858934
Nb      -0.31890974      -0.06547071       3.48666470      -0.26742718      -0.09071051       0.31460366
Nb       1.35708362       1.75041911       5.16895107       0.05411947      -0.43780166      -0.33079228
Nb      -0.38993057       3.21753224       0.14054787       0.02642396       0.12289128       0.04589256
Nb       1.23384706       4.90200269       1.97443283       0.16849050       0.06996936      -0.56013489
Nb      -0.28174282       3.26932607       3.42064964      -0.32002223       0.15054044       0.28038239
Nb       1.28351001       4.91066645       5.30153716      -0.23123139       0.59493947      -0.58978879
Nb       2.98640328       0.19366196       0.14754919       0.04945409      -0.35092276      -0.07555626
Nb       4.62571976       1.70898682       1.76705094      -0.11095917      -0.32181171      -0.00857919
Nb       2.94506990       0.15003063       3.38402756       0.07594556      -0.15434463       0.44645339
Nb       4.78462233       1.66881503       4.96755377      -0.57111502      -0.01923945       0.44605881
Nb       2.96880472       3.45618474       0.11721848      -0.23540133      -0.84190273       0.32080877
Nb       4.47294898       4.86322330       1.80485383       0.68305039       0.82310987       0.10158327
Nb       2.96738643       3.51110734       3.43250010      -0.13486394      -0.98735476       0.34972721
Nb       4.41724973       5.02889205       5.20913907       0.98645580       0.16421154      -0.53698361
16
Lattice="6.62 0.0 0.0 0.0 6.62 0.0 0.0 0.0 6.62" Properties=species:S:1:pos:R:3:forces:R:3 group=Nb_md600_b0 composition=Nb energy=-159.56715393066406 pbc="T T T"
Nb      -0.59540037      -0.03309742       0.14413278       0.53376335       0.16398443       0.15285683
Nb       1.09237244       1.81380805       1.83161059       0.13760859      -0.40150565       0.17824757
Nb      -0.43289465      -0.12799505       3.45817906       0.41375911       0.58720911       0.05028449
Nb       1.28710707       1.57876371       5.13649873      -0.27976835       0.37238446      -0.11944112
Nb      -0.38073816       3.35978143       0.12861702      -0.24379678      -0.17681041       0.32844901
Nb       1.33771249       5.18381988       1.68547183      -0.35576159      -0.50201952       0.59149671
Nb      -0.34012924       3.47879118       3.66322152       0.38443744      -0.75574088      -0.62920505
Nb       1.38756157       5.27438621       5.19162548      -0.31246352      -0.97927845      -0.25472224
Nb       2.93780506       0.12227738       0.25382299       0.12712842      -0.10697985      -0.12911025
Nb       4.56000721       1.53104156       1.96097936       0.05455121       0.82328099      -0.43164086
Nb       2.99023180      -0.04290311       3.47431098      -0.26483005       0.05520521       0.01968652
Nb       4.63163619       1.57422972       5.09688111      -0.24959786       0.27112079       0.21890026
Nb       2.70893133       3.28993981       0.15984628       0.84020257       0.14343570      -0.03347480
Nb       4.62058838       4.84686359       1.92269410      -0.31413603      -0.21449131      -0.52987218
Nb       2.83844846       3.22139755       3.44916985       0.14214091       0.32897830       0.13614877
Nb       4.58872642       4.80639961       5.12157441      -0.61323696       0.39122713       0.45139652
16
Lattice="6.62 0.0 0.0 0.0 6.62 0.0 0.0 0.0 6.62" Properties=species:S:1:pos:R:3:forces:R:3 group=Nb_md1400_b1 composition=Nb energy=-159.06982421875 pbc="T T T"
Nb      -0.21041525       0.24753811      -0.05766378      -0.09056061      -0.09337144       0.04739789
Nb       1.38182706       1.84891262       1.69967572       1.00501704       0.09955613      -0.50466073
Nb      -0.13696595       0.36080174       3.39259037      -0.01723018      -1.09418464       0.34422630
Nb       1.54496669       2.01851538       5.03166625       0.01323226      -1.20618570       0.36983404
Nb      -0.25686894       3.60312630       0.16043770       0.70325345      -0.30936363      -0.72888964
Nb       1.24855698       5.37215687       1.93911645       0.90048552      -1.09262192      -1.03801823
Nb      -0.00423512       3.31109014       3.41753405      -0.92486215       1.45323980       0.15439594
Nb       1.63884459       5.05505475       5.13534940      -0.60399818       0.52118558      -0.14432240
Nb       3.02251535       0.08787450       0.05273427       0.42819902       0.14645505       0.07376975
Nb       4.93674057       1.98004801       1.71174121      -0.96153569      -0.91254944      -0.39529523
Nb       3.22756675       0.09079401       3.30008650      -0.45412707       0.17782320      -0.00524223
Nb       4.69306378       1.61780666       4.81847006       0.10283074       0.81169784       1.16174221
Nb       3.20663578       3.29484914       0.03801474      -0.29873011       0.69437039       0.34943312
Nb       4.78619380       5.16692644       1.60643622      -0.23586300       0.28618988       0.36912614
Nb       3.11428004       3.49932910       3.24501117       0.30971956      -0.05744454      -0.09937447
Nb       4.81937931       4.89025127       4.90794202       0.12417020       0.57520384       0.04587731
16
Lattice="6.62 0.0 0.0 0.0 6.62 0.0 0.0 0.0 6.62" Properties=species:S:1:pos:R:3:forces:R:3 group=Nb_md1400_b1 composition=Nb energy=-158.08876037597656 pbc="T T T"
Nb      -0.18490131       0.29484952       0.17639216      -0.30739307      -0.23035690      -0.78436255
Nb       1.24238014       1.94932230       1.68487411       1.07120442       0.01956478      -0.21643826
Nb      -0.33059667       0.09132282       3.33109484       0.64556211       0.87192374       0.25068229
Nb       1.37870722       1.83572745       4.79057969       0.06242427      -0.09010696       1.44444358
Nb      -0.33246879       3.57516561      -0.03758556       0.72136027       0.56535643       0.47595108
Nb       1.43069219       5.10027136       1.66923236       0.10603932       0.26002353      -0.32180566
Nb      -0.28686245       3.45368857       3.26311006       0.46716905       0.52889991       0.57069290
Nb       1.21253649       5.06355066       4.82909976       0.41882670       1.05365348       1.56096673
Nb       2.98792097       0.50016832       0.18308187      -0.04269964      -0.54173535      -0.35884449
Nb       4.73962962       1.72610193       1.90926187      -0.84249496       0.56731999      -0.85371876
Nb       2.90438566       0.20205418       3.29059783      -0.02046710       0.48798409      -0.15697056
Nb       4.76392142       2.33608113       5.01788693      -0.57900488      -2.27268267       0.53705549
Nb       3.17633612       3.75302809       0.15964919      -0.75987160      -0.33002689      -0.15116969
Nb       4.85456929       4.98180780       1.91199879      -1.40883362       1.28583384      -1.13675869
Nb       3.04472409       3.62240313       3.63437626      -0.16119811       0.11543935      -1.51475215
Nb       4.50976503       5.87292760       5.06234793       0.62937623      -2.29109144       0.65502852
16
Lattice="6.62 0.0 0.0 0.0 6.62 0.0 0.0 0.0 6.62" Properties=species:S:1:pos:R:3:forces:R:3 group=Nb_md1400_b1 composition=Nb energy=-158.9552764892578 pbc="T T T"
Nb      -0.20121828       0.25070314      -0.09130921      -1.23269427       0.89835441       1.23003650
Nb       1.21755842       1.86700249       1.41577170       0.11738110       0.55723327       1.56565785
Nb      -0.20235700       0.31532277       3.39659827      -0.69287276      -0.00488546      -0.64625525
Nb       1.30530401       2.15431792       5.05086174      -0.05701128      -0.47509471      -0.39630544
Nb      -0.33358225       3.92686769       0.11913717       0.11532009      -1.42252910       0.27489331
Nb       1.54135196       5.27554864       1.78933977      -0.87063056       0.16747692      -0.23834226
Nb      -0.27032315       3.40259064       3.34156521      -0.49863186       0.75729740      -0.19474687
Nb       1.18000372       5.41059652       5.07302708       1.56220376      -0.79339409      -0.62321711
Nb       3.02341217       0.39755546       0.09382911       0.10939801      -1.07814002      -0.33793882
Nb       4.51476702       1.84812777       1.63494808       0.77860725       0.18760121       0.97164291
Nb       3.02475079       0.31816170       3.51603151       0.09106904       0.47384769      -0.27617484
Nb       4.59431452       2.12430630       5.16746575       0.52838039      -0.47808835      -0.86113763
Nb       2.98577193       3.49362875       0.10269721      -0.21990141       1.30643153       0.04869676
Nb       4.58287526       5.10144429       1.80870139       0.52591121       0.78308177       0.21590081
Nb       2.89630582       3.77257367       3.44008463       0.40901423      -1.00765598       0.07432090
Nb       4.66062206       5.29465117       5.16551649      -0.66554368       0.12846398      -0.80703062
16
Lattice="6.62 0.0 0.0 0.0 6.62 0.0 0.0 0.0 6.62" Properties=species:S:1:pos:R:3:forces:R:3 group=Nb_md1400_b1 composition=Nb energy=-157.59695434570312 pbc="T T T"
Nb      -0.53815510       0.29791019       0.11173700       1.03725207       0.22900055      -0.81396270
Nb       1.38920520       1.94598772       1.89316341      -0.32840616       0.16317771      -2.24455738
Nb      -0.34210159       0.61973315       3.40286605      -0.95541066      -0.44711310       0.98839134
Nb       1.04903155       2.12707719       5.14143916       1.03760624      -0.16656923       0.55168933
Nb      -0.37469316       3.67062285       0.44156370       0.98425800       0.72373432      -2.34985662
Nb       1.00852005       5.62973669       1.88434780       2.19015718      -0.88365531      -1.11748862
Nb      -0.29561276       3.75012217       3.17804485      -0.25314760      -0.38474846       1.73028183
Nb       1.43394209       5.39633425       4.75358653      -0.70735067      -0.34770420       1.34893513
Nb       3.09658341      -0.13538140       0.02984478      -1.13886988       2.00570130      -0.10102415
Nb       4.64749618       2.24179113       1.66489062      -1.20482194      -1.75381231       0.32418737
Nb       2.95538467       0.54476439       3.36004749       0.65990102      -1.00579834       0.79882920
Nb       4.54425259       1.83602964       5.11649674      -0.34149021       0.82683492      -0.01315016
Nb       2.89922549       3.72764039       0.06848924      -0.46544439      -0.36907491      -0.03510079
Nb       4.64786818       5.57825274       1.92871886      -0.87843966      -0.95063198       0.09435228
Nb       2.87610559       3.57145025       3.20970359       0.56222421       1.26296198       1.05378544
Nb       4.77866735       4.89987866       5.02587965      -0.19801787       1.09769750      -0.21531181
16
Lattice="6.82 0.0 0.0 0.0 6.82 0.0 0.0 0.0 6.82" Properties=species:S:1:pos:R:3:forces:R:3 group=TiZr_rattle05_b0 composition=TiZr energy=-130.4198455810547 pbc="T T T"
Ti       0.00836241      -0.04037631      -0.00494164       0.02937228      -0.08977813       0.01260188
Ti       1.66016812       1.71292144       1.62263179      -0.03170145      -0.09774929      -0.03347703
Zr       0.04457022      -0.02832699       3.36023117      -0.16809353       0.02642144       0.02010663
Zr       1.62461449       1.66490365       5.10930808       0.01057121       0.06952903       0.23864990
Ti       0.01991911       3.38941791       0.08797438      -0.03127184       0.14745791      -0.25868532
Zr       1.76605944       5.11040699       1.77929704      -0.31540126      -0.00521602      -0.44911981
Ti       0.02875283       3.35707273       3.43708566      -0.12051159       0.10356241      -0.04385469
Ti       1.74317994       5.14841991       5.06836694      -0.22451746      -0.11967252       0.27143982
Ti       3.45377724      -0.06115325      -0.07669566      -0.10004722       0.11573346       0.13495070
Ti       5.15758497       1.76805133       1.60820122       0.07631359      -0.14092436       0.00729712
Zr       3.43089114       0.04771905       3.37525485       0.09113586       0.12746444      -0.00008061
Zr       5.17514423       1.56684140       5.12078538       0.04846962       0.27422261       0.17396325
Zr       3.35809246       3.35018154      -0.03639819       0.08147196       0.03563054      -0.11851043
Zr       5.13341792       5.14272216       1.69052982       0.23374510      -0.09606422      -0.22417033
Zr       3.37551353       3.48284899       3.32607328       0.15487444      -0.29784971       0.21245642
Ti       5.08891250       5.06225667       5.14176017       0.26559037      -0.05276766       0.05643230
16
Lattice="6.82 0.0 0.0 0.0 6.82 0.0 0.0 0.0 6.82" Properties=species:S:1:pos:R:3:forces:R:3 group=TiZr_rattle05_b0 composition=TiZr energy=-130.44537353515625 pbc="T T T"
Zr       0.04532156       0.02611124      -0.06724431      -0.07139312       0.06491684       0.04059231
Ti       1.66833599       1.71705052       1.83098996      -0.02771226       0.10963239      -0.34776288
Ti       0.09756783       0.09638818       3.50414800      -0.21687409      -0.19451177      -0.11422998
Ti       1.75521703       1.72517496       5.10672111      -0.02771571       0.11882973       0.09364964
Zr      -0.10496752       3.41099659      -0.07708024       0.14415145      -0.09236860       0.06751835
Zr       1.74717386       5.12682940       1.68338762      -0.33284962      -0.20518923       0.11994824
Ti       0.00849736       3.39374761       3.40913417      -0.04782315       0.08369246       0.08578011
Zr       1.75630821       5.15572407       5.05946791      -0.09111619      -0.24045968      -0.02157660
Zr       3.48316834      -0.08457681       0.04054800       0.00056145       0.38269794      -0.32700595
Zr       5.16941223       1.68092436       1.73028266       0.14159325       0.15911961      -0.04142779
Zr       3.43858926       0.03162273       3.33184925       0.12359126      -0.04207098       0.38747528
Ti       5.20742755       1.68533740       5.01906190      -0.13951841       0.04877955       0.17198652
Ti       3.42241992       3.46798241       0.00744634       0.06847323      -0.27035370      -0.11556788
Ti       5.05082004       5.10903996       1.72653272       0.41093346      -0.13810220       0.12727109
Zr       3.43526861       3.30065044       3.40280882       0.13530247       0.21820116       0.16347976
Ti       5.18307309       5.10497769       5.13625014      -0.06960419      -0.00281362      -0.29013020
16
Lattice="6.82 0.0 0.0 0.0 6.82 0.0 0.0 0.0 6.82" Properties=species:S:1:pos:R:3:forces:R:3 group=TiZr_rattle05_b0 composition=TiZr energy=-130.3783416748047 pbc="T T T"
Zr       0.07568763      -0.01926450       0.06059112      -0.24514048       0.33787361      -0.19178428
Ti       1.71356777       1.72328027       1.77630990       0.24351200      -0.05541115      -0.15942186
Zr       0.06640263      -0.02359137       3.43853383      -0.28462034       0.30595726       0.12146220
Ti       1.75194218       1.68773491       5.13595449       0.14583202      -0.05296345      -0.00529155
Zr       0.02634984       3.41119190      -0.00856778      -0.17310452      -0.27573922      -0.10220263
Zr       1.66384539       5.17149480       1.71472876       0.61438930      -0.01056370      -0.13820794
Zr      -0.09547070       3.46918627       3.36202471       0.00257471      -0.31135499       0.22957116
Zr       1.63746426       5.12922014       5.09587853       0.57892221       0.05570655       0.15639795
Ti       3.41422014       0.01917567      -0.02433116       0.11137876       0.08471367      -0.05259341
Zr       5.06309928       1.69991811       1.73650034      -0.31367975      -0.06244649      -0.24557035
Ti       3.47919938       0.01723309       3.38756586       0.01480297      -0.01593594       0.21562004
Ti       5.19430754       1.66327376       5.09387795      -0.34138545      -0.01926942       0.18756519
Ti       3.31620892       3.39171635      -0.01745544       0.28082508      -0.03772270      -0.04368474
Ti       5.13686743       5.14428448       1.68409349      -0.41762593       0.03640604      -0.14164457
Zr       3.38838429       3.40954013       3.45763249       0.19662222      -0.04397041       0.13338512
Ti       5.16172664       5.13465157       5.18937465      -0.41330254       0.06472045       0.03639964
16
Lattice="6.82 0.0 0.0 0.0 6.82 0.0 0.0 0.0 6.82" Properties=species:S:1:pos:R:3:forces:R:3 group=TiZr_rattle05_b0 composition=TiZr energy=-130.52291870117188 pbc="T T T"
Zr       0.03500589       0.02624788       0.06970813      -0.37996927       0.14292566       0.13682914
Zr       1.74469269       1.76723384       1.76852063       0.17931230      -0.00434253       0.02335502
Ti      -0.02555599      -0.05018118       3.46382025      -0.16247201       0.24192020      -0.27682433
Zr       1.64062092       1.77211131       5.14670795       0.28442726       0.00360951      -0.19054669
Ti      -0.00707427       3.37808212      -0.02723059      -0.23644415       0.02455273       0.15068793
Zr       1.77195630       5.15554848       1.65485807       0.05151984      -0.18441612       0.16389209
Zr       0.01446535       3.35054471       3.29992361      -0.28796116      -0.00164926       0.07302178
Zr       1.71127631       5.20639776       5.07539333       0.14727920      -0.27148840      -0.05824440
Zr       3.51048385      -0.02961519       0.03097091       0.22081217       0.23929302       0.04877499
Ti       5.08235208       1.74414344       1.74717597      -0.05649444       0.00119023      -0.00798838
Ti       3.45276533      -0.01676842       3.39606331       0.19614571       0.16696841      -0.01864802
Ti       5.11528491       1.70205562       5.06645894      -0.07411806       0.07848689      -0.00903547
Ti       3.41834358       3.40147337      -0.05093300       0.26829499      -0.06061153       0.09265130
Ti       5.12910518       5.05339543       1.75679559      -0.03306939       0.01594267      -0.11469634
Ti       3.50437442       3.48191946       3.39897454       0.00348893      -0.17697746       0.04715577
Zr       5.15560208       5.14903086       5.12810196      -0.12075183      -0.21540421      -0.06038445
16
Lattice="6.82 0.0 0.0 0.0 6.82 0.0 0.0 0.0 6.82" Properties=species:S:1:pos:R:3:forces:R:3 group=TiZr_rattle10_b1 composition=TiZr energy=-129.89639282226562 pbc="T T T"
Ti      -0.07111232      -0.03348362      -0.02412113       0.26428762       0.21803631      -0.21473086
Zr       1.69102156       1.68548184       1.81124002      -0.61205709      -0.02620994      -0.51293409
Ti       0.12439036       0.00269946       3.34353242      -0.00137106      -0.19924255       0.34971488
Ti       1.78368614       1.67271843       5.12844518      -0.33883309      -0.08600300       0.20581187
Ti      -0.13953070       3.28876101      -0.15341046       0.77108723       0.35065538       0.57996029
Ti       1.75221311       5.16496913       1.34659012      -0.62466550       0.11850866       0.45142823
Ti      -0.01493065       3.41750267       3.56287867       0.47187054       0.21280143      -0.43342376
Ti       1.57850878       5.04952409       5.20802811       0.02176701       0.21614735       0.06485488
Ti       3.53510140      -0.02751662      -0.04389343      -0.41693744       0.15768626      -0.21467623
Zr       4.98951815       1.64077670       1.74621778       0.86598694      -0.00577548      -0.03555989
Zr       3.30812338      -0.04915094       3.34262669      -0.29686183      -0.23392633       0.42288795
Zr       5.17132523       1.95432338       5.08065588      -0.17274791      -1.29199004      -0.04843786
Zr       3.42309876       3.44110721       0.23998892      -0.34346628      -0.10461971      -0.70924890
Zr       5.16321042       5.21101840       1.74098909       0.54729825      -0.18951967      -0.04167394
Zr       3.36011755       3.39833864       3.44848433      -0.56480056       0.39984572       0.18694620
Zr       5.05211143       5.10311283       5.12856448       0.42944330       0.46360570      -0.05091858
16
Lattice="6.82 0.0 0.0 0.0 6.82 0.0 0.0 0.0 6.82" Properties=species:S:1:pos:R:3:forces:R:3 group=TiZr_rattle10_b1 composition=TiZr energy=-130.18527221679688 pbc="T T T"
Ti       0.02442300       0.02713893       0.04784569       0.01771335      -0.24359091      -0.03636860
Ti       1.58763455       1.68591344       1.63157427       0.23767254       0.09877469      -0.01279880
Zr      -0.17601742      -0.05059127       3.47645564       0.72022933       0.34648496      -0.23746136
Zr       1.74929210       1.83958977       5.14070997       0.27031121      -0.44420478       0.21712238
Ti       0.04801243       3.42453888      -0.15425904      -0.01137564       0.25942123       0.59300792
Zr       1.64275661       5.05822948       1.68229357       0.00431088      -0.06437414      -0.31421617
Zr      -0.04198354       3.44076432       3.56326523       0.32907617      -0.18833844      -0.54920870
Ti       1.84980023       5.09319976       5.15186920      -0.23116191       0.13559961       0.17342794
Ti       3.39673929      -0.15657080       0.01330770       0.00890270       0.22191647       0.12667060
Zr       5.07512238       1.78886435       1.63682174      -0.05144027      -0.01544265      -0.03194502
Zr       3.39678321      -0.10013455       3.32412648      -0.43316558       0.41189533      -0.02480531
Zr       5.16082310       1.75529698       5.27570698      -0.46751273      -0.22078216      -0.08363890
Ti       3.44194907       3.39680572       0.01808558      -0.15158421       0.27157152       0.13325441
Ti       5.06988650       5.08478333       1.85861269       0.11645887      -0.13920614      -0.82726073
Ti       3.33661213       3.49420286       3.40314340       0.00131707      -0.37444711      -0.15253581
Zr       5.15104042       5.12419245       4.96250358      -0.35975197      -0.05527731       1.02675629
16
Lattice="6.82 0.0 0.0 0.0 6.82 0.0 0.0 0.0 6.82" Properties=species:S:1:pos:R:3:forces:R:3 group=TiZr_rattle10_b1 composition=TiZr energy=-129.8782958984375 pbc="T T T"
Zr       0.08265394      -0.12292090       0.05826661      -0.19504759       0.36228028      -0.33417839
Zr       1.66702839       1.55308129       1.90835378       0.51118445       0.50131875      -0.94268292
Ti       0.12903854       0.18850034       3.57985835      -0.57517517      -0.72128415      -0.16611397
Zr       1.67056871       1.80515596       5.08997087       0.66814131      -0.08910459       0.48200783
Ti       0.22309466       3.42002543      -0.07338691      -0.45846313      -0.06141701       0.05654140
Zr       1.63546245       5.06346148       1.67265338       0.79887503      -0.17961642       0.00874922
Zr      -0.01700837       3.31646970       3.39159723      -0.04708564       0.30890870       0.02614251
Ti       1.71405862       5.16943230       4.91465051       0.25493163      -0.28529844       0.42744675
Ti       3.40894575      -0.01201644      -0.00693987       0.13804072       0.08036147      -0.05070426
Ti       5.14694488       1.56398072       1.83583472      -0.09405847       0.21444348      -0.52451885
Zr       3.46275744      -0.02651478       3.40041317       0.22855085       0.11045876       0.16639772
Ti       5.32074124       1.78712853       5.11000473      -0.60302931      -0.16009001       0.43313152
Ti       3.43759438       3.20041883      -0.10490741       0.18175215       0.18643919       0.23868917
Zr       5.32191575       5.06404162       1.69521986      -0.71569550      -0.08842070      -0.29121259
Ti       3.52601649       3.35255064       3.40482470      -0.07408254      -0.00264882      -0.07157347
Zr       5.07430628       5.15949056       4.99483403      -0.01883882      -0.17633051       0.54187822
16
Lattice="6.82 0.0 0.0 0.0 6.82 0.0 0.0 0.0 6.82" Properties=species:S:1:pos:R:3:forces:R:3 group=TiZr_rattle10_b1 composition=TiZr energy=-130.10020446777344 pbc="T T T"
Ti       0.00858965      -0.00671093      -0.06104140      -0.17527983      -0.27510428      -0.00816837
Zr       1.70890538       1.85577064       1.53418326      -0.00514423      -0.26201552       0.30550274
Ti       0.08330583       0.01044334       3.65266487      -0.20151751      -0.29627523      -0.53949058
Zr       1.74403519       1.59058847       5.08239203      -0.37989104       0.66305542       0.18808581
Ti       0.00568266       3.33419088       0.00126089      -0.11472860       0.53134155      -0.31082809
Zr       1.51930660       5.20428622       1.76894190      -0.03183094      -0.19631997      -0.14653419
Ti       0.07677796       3.30415521       3.40152150      -0.04427007       0.44746488       0.18538591
Ti       1.79420847       5.05919987       5.09689002      -0.51492399      -0.37850550       0.06738166
Zr       3.30533540      -0.16464040      -0.12668257       0.43302491      -0.20131826       0.62516469
Zr       5.25334422       1.81549023       1.71758707      -0.06935817      -0.38435620      -0.28867862
Zr       3.45025412       0.05784351       3.58370409       0.05649930      -0.57580513      -0.84367710
Zr       5.07970453       1.61196698       5.02361816       0.61615098       0.34582222       0.47983211
Ti       3.51625288       3.30562344      -0.12057083       0.01694003       0.52825189       0.14733174
Ti       5.05300527       5.20285509       1.60634501       0.37574503      -0.14654826       0.02916530
Zr       3.57051020       3.49576148       3.41576041      -0.15990680       0.32321388      -0.16174634
Ti       5.25341870       5.06036303       5.05077867       0.19849075      -0.12290164       0.27127334
16
Lattice="6.82 0.0 0.0 0.0 6.82 0.0 0.0 0.0 6.82" Properties=species:S:1:pos:R:3:forces:R:3 group=TiZr_rattle18_b2 composition=TiZr energy=-129.20277404785156 pbc="T T T"
Ti       0.05983708       0.26378901       0.02394568       0.56675321      -0.71701366      -0.45665568
Ti       1.60704446       1.89604615       1.90016833      -0.04710424      -0.61979997      -0.82139069
Zr       0.21681371      -0.08028845       3.65518793      -0.52297527       0.22112097      -0.73468459
Ti       1.39144317       1.84369381       5.07542427       0.53259742       0.20265979       0.39605141
Ti      -0.22427682       3.41138612      -0.10180676       0.87023646       0.21325073      -0.01224396
Zr       1.61693746       5.13253201       1.60396479      -0.17284608       0.39335623       0.28674549
Zr      -0.31018885       3.48242088       3.21520399       0.48115146       0.01803371       0.35447985
Ti       1.75964095       5.22885258       5.30160317      -0.40801275      -0.36486161      -0.45155582
Ti       3.32123353      -0.02514231      -0.13076015      -0.48806599       0.46501943       0.52617913
Zr       5.32145619       1.68160962       1.42241170      -1.19326985      -0.42968050       1.05964160
Ti       3.31985532       0.04572755       3.47226108      -0.16031477      -0.39361471      -0.51651537
Zr       4.72822068       1.56300023       5.14062958       0.95040226       0.21049285       0.01179808
Zr       3.40101803       3.77619635       0.09385602      -0.50772917      -1.41397166      -0.15894984
Ti       5.08428711       5.30420547       1.39454435       0.39940017       0.42254120       0.88168764
Zr       3.30686087       3.13387368       3.45462450      -0.05833165       1.02344716      -0.17767283
Zr       5.17496464       5.02147840       5.11504658      -0.24189153       0.76902032      -0.18691446
16
Lattice="6.82 0.0 0.0 0.0 6.82 0.0 0.0 0.0 6.82" Properties=species:S:1:pos:R:3:forces:R:3 group=TiZr_rattle18_b2 composition=TiZr energy=-125.18563079833984 pbc="T T T"
Ti       0.16973705       0.16637004      -0.58957904      -2.02447391      -2.52959847       4.56312752
Zr       1.72578761       1.57549059       1.57612833      -1.91021609       2.22039199      -0.02197042
Zr       0.26921731       0.21491688       3.23720103      -3.58806562      -2.50655413      -1.28785658
Zr       1.47318550       1.48806031       4.85949603       4.63773060       3.80762768       1.45483911
Ti       0.09018362       3.70750439       0.00983644      -0.06894132      -1.79436851       0.33580184
Zr       1.59172701       5.05814340       1.71742898       0.38488454       0.37743586      -1.05885494
Zr      -0.01755057       3.43235387       3.41652421      -1.24196112      -0.24325067      -0.50859594
Zr       1.57044543       5.15355527       5.10169810       1.97267520      -0.83773339       0.38566756
Ti       3.23656188       0.34380640       0.35762478       0.76108336      -2.88278246      -3.79750919
Ti       4.93560839       1.19704719       1.61804351       2.56323433       1.89933109       0.72102094
Ti       3.37634961      -0.18668004       3.19617730       0.55526173       0.18380478       1.59509039
Ti       5.45311674       1.73456912       5.38935674      -2.62288260       0.91569752      -0.65879440
Ti       3.56257816       3.24763727       0.38587858      -0.39462510       0.09068632      -1.71426702
Zr       5.03409342       4.96751621       1.68491775       0.62371868       0.89246476      -0.14237046
Zr       3.14608008       3.46073788       3.44858101       1.74919188      -0.79707640       0.62432134
Ti       5.24980032       4.80333767       5.30090264      -1.39661527       1.20392501      -0.48964927
16
Lattice="6.82 0.0 0.0 0.0 6.82 0.0 0.0 0.0 6.82" Properties=species:S:1:pos:R:3:forces:R:3 group=TiZr_rattle18_b2 composition=TiZr energy=-127.58576965332031 pbc="T T T"
Ti      -0.15678653       0.27970669       0.08234925       0.35486537      -1.06733978      -0.66183001
Zr       1.34193187       1.61152860       1.62331119       2.05842805       0.79613924       0.58068407
Ti       0.03716599       0.43075158       3.46954357      -0.89159477      -1.43894613       0.35114950
Ti       1.62190966       1.86477008       4.84707461       0.29265347      -0.21280140       0.91836071
Zr       0.01014583       3.55386227       0.27828978       0.98759240      -1.94993210      -2.49568224
Zr       1.34525689       5.39200253       1.56425235       1.51358557      -0.04630326       1.61368525
Ti      -0.05834257       3.38290716       3.45321427      -0.02777889       0.38929966       0.29453552
Ti       1.63194900       5.03453249       5.42303732      -0.04573309       0.78078222      -1.12043226
Zr       3.66089595      -0.27158465       0.29805089      -1.37750769       1.19539344      -1.07929063
Ti       4.92709990       2.05443058       1.62060508       0.04055530      -0.87334919       1.14772475
Zr       3.67995551       0.21451219       3.58583895      -0.62354451      -0.71020484      -0.38406593
Zr       5.20195959       1.60232677       5.37855290      -0.40289405       1.03612256      -1.17149854
Zr       3.30394728       3.19408697      -0.11901993      -0.46264744       0.59721392      -0.10777938
Zr       5.27763831       4.98134609       1.43918119      -1.38469100       1.12013137       2.84111142
Ti       3.28842755       3.62036830       3.50941673       0.13123259       0.09041193      -0.16013402
Ti       5.32278208       5.03076778       5.16205364      -0.16252144       0.29338178      -0.56653893
16
Lattice="6.82 0.0 0.0 0.0 6.82 0.0 0.0 0.0 6.82" Properties=species:S:1:pos:R:3:forces:R:3 group=TiZr_rattle18_b2 composition=TiZr energy=-129.42840576171875 pbc="T T T"
Ti      -0.08895002      -0.12432822      -0.02188234       0.34221265      -0.19796309       0.21127170
Ti       1.58156660       1.66809455       1.92336305       0.19975266      -0.41877812      -0.45628977
Ti      -0.06425400      -0.31020350       3.46947140       0.34759006       0.67443836      -0.23344728
Zr       1.73703242       1.39939076       5.09361195      -0.37196994       0.34706128       0.08481982
Zr      -0.00596429       3.16925125       0.04833363       0.38473400       0.31202784      -0.30520093
Zr       2.04551122       5.00708105       1.91894287      -1.23675621       0.45341557      -1.25678051
Zr      -0.12940287       3.43156598       3.26031246       0.98414624      -0.91323459       1.18763971
Ti       1.84258315       5.18403931       5.11150829      -0.55461615      -0.26663288       0.25416633
Ti       3.48145123      -0.16816652      -0.13845318      -0.24141636       0.15728948       0.71610445
Zr       5.07454576       1.32241556       1.74193587      -0.01106191      -0.04319320       0.05665487
Ti       3.26212317      -0.00552696       3.32935316       0.61142230       0.24218006       0.36991921
Ti       4.93361898       1.61410106       5.25884666       0.56429458      -0.40363410      -0.60302532
Zr       3.57820774       3.37370209      -0.06845478      -0.62173557      -0.17039946       0.33187205
Ti       5.18050435       4.81764109       1.88010217      -0.22787303       1.45992219      -1.35126090
Zr       3.51566630       3.53033198       3.43994503      -0.52481896      -1.49065614       0.49396706
Zr       5.06233653       5.16006596       5.04712679       0.35609597       0.25815699       0.49958959
54
Lattice="10.23 0.0 0.0 0.0 10.23 0.0 0.0 0.0 10.23" Properties=species:S:1:pos:R:3:forces:R:3 group=TiZr_rattle10_b9 composition=TiZr energy=-438.2791442871094 pbc="T T T"
Ti      -0.09545852       0.01070566      -0.04490179       0.55556232       0.28611720      -0.29439363
Ti       1.72335132       1.57691567       1.84720280      -0.03649344       0.02803824      -0.47868851
Ti      -0.07051015      -0.04596388       3.36577524       0.14283302       0.20071051       0.23673870
Ti       1.58327703       1.63344819       5.11193326       0.23585626      -0.11908899       0.13218516
Ti      -0.06883732      -0.05684268       6.69606145       0.22674187       0.52992696       0.59158927
Ti       1.75473056       1.56367461       8.38343196      -0.00183584      -0.03280640       0.10017505
Ti      -0.03672879       3.41508985       0.01569716       0.14410174      -0.02582732      -0.33944327
Zr       1.70508224       5.20990816       1.76276377      -0.56810874      -0.50322366      -0.22413789
Zr      -0.03999676       3.16562495       3.33271478       0.02102053       0.24791756      -0.12259592
Zr       1.55592325       5.09066461       5.17885013       0.11162646       0.01006141      -0.16014680
Zr       0.09274208       3.53916782       6.81579348      -0.18972379      -0.82033372       0.66400504
Ti       1.88865591       5.01358235       8.34840475      -0.54833186      -0.16090456       0.50652039
Zr      -0.09527565       6.73620341      -0.17195089       0.22828212      -0.30361795      -0.09334317
Zr       1.56817088       8.57407642       1.60569114       0.09171787       0.37221128       0.09422270
Ti       0.05571558       6.85323227       3.31160337      -0.36245447      -0.16771518       0.20055366
Zr       1.54886897       8.47401284       5.31987547       0.21011332       0.25776094      -0.34436005
Ti      -0.09782289       6.79298443       6.85409417       0.28038234       0.03924422       0.37086535
Ti       1.72812989       8.51420109       8.52682547      -0.12098880       0.39721054       0.03055371
Ti       3.58406858       0.02323770       0.14452977      -0.77412939       0.52974552      -0.77996451
Ti       5.01456743       1.79690272       1.59922789       0.40135986       0.15238729       0.17488167
Zr       3.50199925       0.06515215       3.45150510      -0.33351427       0.26269555       0.17658885
Ti       5.32309965       1.74049567       5.17992825      -0.69217914       0.35528457      -0.32565075
Ti       3.40321246      -0.06761424       6.75048975      -0.11713460       0.46837801       0.28179407
Ti       5.29524433       1.64017015       8.56120446      -0.52292001       0.41532162      -0.08293268
Zr       3.29398487       3.43888650       0.02409989      -0.15984814      -0.74505174      -0.25826252
Zr       5.16116990       5.08131955       1.70764135       0.80374652      -0.18585420       0.14063352
Zr       3.52432791       3.49591901       3.47482551      -0.02888437      -0.69386649       0.17347199
Ti       5.23609493       5.18374009       5.10473891      -0.12217253      -0.41079509       0.09819575
Ti       3.45396886       3.33906275       6.56856024      -0.00387438      -0.22993565       0.37570781
Zr       4.96790922       5.17492049       8.53623949       0.52256745      -0.99548483      -0.25014859
Zr       3.42402597       6.81994856       0.16145046      -0.42020440       0.08421332      -0.58112997
Zr       4.98634994       8.60610496       1.54409259       0.51061368      -0.56460595       0.66425401
Zr       3.43251087       6.65696177       3.54240365      -0.01848131       0.53481477      -0.03015928
Zr       5.10202382       8.50182479       5.20999978      -0.33598447       0.08911818      -0.40485647
Zr       3.34994890       6.73116113       6.95422612      -0.11618316       0.24635832      -0.27124664
Zr       5.24576651       8.46324012       8.48784217      -0.58689964       0.45627856       0.09032013
Zr       6.77156674      -0.02960721       0.00830272      -0.00401676       0.55820811       0.01120817
Zr       8.59320040       1.66722980       1.58077679      -0.18993728       0.34507734       0.07692930
Zr       6.78488584      -0.08167367       3.37020460       0.15400413       0.58259428       0.03052727
Ti       8.55599198       1.86882865       5.19564547       0.04319823      -0.47054541      -0.09356768
Zr       6.68248133       0.15701897       6.63721804       0.50081122      -0.09052910       0.46371734
Ti       8.38940824       1.47714758       8.36802017       0.37365809       0.58284211       0.23277214
Ti       6.92370676       3.37373444      -0.03413897       0.02580042       0.09069861      -0.23612039
Ti       8.54753112       5.07361348       1.65761798      -0.22009389      -0.00410794       0.08756836
Ti       6.82735834       3.45075943       3.67604854       0.01658250      -0.20893830      -0.66802734
Zr       8.49408996       5.00439779       5.19517253       0.06280604       0.38797760      -0.52583545
Ti       6.87144581       3.34983110       6.73338997      -0.21617131       0.10160757       0.50675470
Ti       8.50320534       5.23780232       8.39052481      -0.22547446      -0.59721732       0.28158498
Ti       6.72018557       6.65983796      -0.17530360       0.49927908      -0.00508682       0.52777219
Zr       8.54606501       8.47166124       1.71689629      -0.08357514      -0.32846743       0.01530420
Ti       6.80930372       6.98735539       3.47112093       0.10802730      -0.45699692      -0.29324332
Zr       8.63402543       8.52522444       5.22110779       0.01034886      -0.04289186      -0.48540291
Zr       6.78581100       6.83411971       6.63954383       0.32158512      -0.29739004       0.45207977
Zr       8.44830255       8.61476818       8.66367606       0.39698920      -0.15151699      -0.44581795
54
Lattice="10.23 0.0 0.0 0.0 10.23 0.0 0.0 0.0 10.23" Properties=species:S:1:pos:R:3:forces:R:3 group=TiZr_rattle10_b9 composition=TiZr energy=-437.9633483886719 pbc="T T T"
Ti       0.12490582       0.06181771      -0.07631489      -0.12684055       0.08753626       0.18583216
Ti       1.57036317       1.78104333       1.61324541       0.05469795      -0.08923999       0.23565790
Zr       0.00901831      -0.14824515       3.43604220       0.45394358       0.91992867      -0.44253677
Ti       1.77887114       1.64751205       5.10016543      -0.03273879       0.14750296      -0.20158626
Zr      -0.15809074      -0.12381425       6.63181448       0.56582457       0.51688212       0.67328632
Ti       1.72553010       1.60793821       8.45097131      -0.25240982       0.02498916       0.35602239
Ti       0.00986822       3.57734984      -0.15384771      -0.13322188      -1.04141796       0.44780150
Zr       1.65653797       4.98571416       1.70916762       0.32197207      -0.20500632       0.47237119
Ti      -0.20309052       3.40714281       3.43525553       0.21712270      -0.39868543      -0.03896243
Zr       1.68730040       4.94655224       5.08279832       0.07284018      -0.05028777      -0.47499281
Zr       0.06730577       3.39980623       6.96131191      -0.37621391      -0.56575537      -0.45097890
Zr       1.65560333       5.13279575       8.60852995       0.52710402      -0.03870013      -0.20529768
Zr       0.07497639       6.78021352      -0.02222400       0.08439296       0.55823696       0.08917241
Zr       1.78055053       8.48079214       1.69916765       0.29211029       0.60322440      -0.07174914
Zr      -0.15713719       6.79448769       3.35378597       0.64848202      -0.22444807       0.34356275
Ti       1.62473919       8.58162424       5.13045437       0.66425025      -0.09785093      -0.07022005
Zr      -0.05791259       6.78651753       6.79327806       0.30875117       0.10099755      -0.32570088
Ti       1.66222382       8.58965105       8.51666327       0.28759533       0.11122091      -0.09865537
Ti       3.50357987       0.03113808      -0.10588915      -0.40589809      -0.20481201       0.38362616
Zr       5.17769525       1.73277318       1.74418440       0.00783925      -0.13633782       0.27649441
Ti       3.46129902       0.12857190       3.40399420      -0.15682997      -0.28223947      -0.01020199
Ti       4.97649416       1.46977565       5.13532450       0.18606836       0.37489432      -0.27923933
Ti       3.34260894       0.27777280       6.98903706      -0.22405769      -0.88356930      -0.58250952
Zr       5.03884006       1.59195077       8.51152271       0.74966669       0.25449282       0.02021228
Zr       3.42750830       3.28334248       0.05639332      -0.05304698       0.09109231       0.08264972
Ti       5.16465927       5.10933633       1.85960125      -0.33754057       0.00786471       0.06288365
Ti       3.46915707       3.39093306       3.37099503       0.00526446      -0.20121816       0.18967962
Ti       5.09810791       5.07578600       5.22678604       0.10004333      -0.03490309      -0.45530480
Zr       3.51599694       3.41037864       6.84420699       0.04782119      -0.23332107      -0.21518078
Ti       5.17651453       5.20667872       8.57535048      -0.54297757      -0.64047390      -0.56475186
Zr       3.49471944       6.82378694       0.01856075       0.01450530       0.11113831       0.17887123
Ti       5.21206336       8.49239715       1.68063068      -0.32391292       0.24157044       0.19340986
Ti       3.29779525       6.96275409       3.42195083       0.46451727      -0.16556440       0.20478904
Ti       5.25121730       8.65222457       5.20580644      -0.72612333       0.00831641      -0.43622470
Zr       3.36385501       6.66657132       6.66684368       0.06520062       0.73585606       0.00652148
Zr       5.22919098       8.51646280       8.51955584      -0.81155592       0.71811199       0.16297910
Ti       6.89442805       0.02664298       0.14251724      -0.09653251       0.20237531      -0.23357023
Ti       8.58239831       1.72299111       1.68565512       0.05374770       0.09930231      -0.09276563
Ti       6.86444068      -0.01172140       3.29019439      -0.61215210       0.27229565       0.12304240
Zr       8.32163507       1.51243525       5.13848689      -0.03782186       0.85547411      -0.16141906
Ti       6.59177301      -0.01804881       6.68439077       0.41236907       0.23069330       0.37186956
Ti       8.57286390       1.57722657       8.62004113      -0.18111601       0.09390606      -0.10773668
Zr       6.80492839       3.51233402      -0.11008478       0.06832910      -0.77429056       0.24246928
Zr       8.47776635       5.20974336       1.65133824       0.00667763      -0.72621679       0.35756293
Ti       6.83297120       3.56361001       3.48566555      -0.13446231      -0.40777621       0.03262787
Ti       8.49067163       5.00634192       5.03021440      -0.00497884      -0.05607298       0.43731767
Ti       6.77190334       3.45158109       6.66946852      -0.05056589      -0.17512289       0.19680145
Zr       8.49490057       5.11959824       8.58035210      -0.03620833      -0.59894991      -0.67833149
Zr       6.75687821       6.66504391      -0.14924278      -0.12993723       0.63122147       1.21027207
Zr       8.39741683       8.63178107       1.77461650       0.18602991       0.09027563      -0.75959134
Zr       6.80024836       6.77298531       3.54344754      -0.85241574      -0.11763841      -0.03253728
Zr       8.42976833       8.51215280       4.94548735      -0.25022697       0.02724519       0.48606256
Zr       6.81174225       7.00471508       7.04597761      -0.18620592      -0.75777274      -1.35100925
Zr       8.53994704       8.49220242       8.55452796       0.20882456       0.99102658       0.31720456
54
Lattice="10.23 0.0 0.0 0.0 10.23 0.0 0.0 0.0 10.23" Properties=species:S:1:pos:R:3:forces:R:3 group=TiZr_rattle10_b9 composition=TiZr energy=-438.1408386230469 pbc="T T T"
Zr       0.00960471      -0.05283132       0.02549860      -0.38319302       0.35766283      -0.07131923
Ti       1.78646226       1.72978831       1.69699411      -0.43310833       0.20173112      -0.04920298
Zr       0.07759970       0.14915271       3.27735114      -0.57431608      -0.33152771       0.51388144
Zr       1.68542292       1.64750901       5.11153935       0.30691448       0.28643188      -0.05362964
Zr      -0.01584477       0.15552526       6.95327201      -0.24112143      -0.53535444      -0.48402101
Ti       1.76416579       1.65166674       8.52653644      -0.24781787       0.50803900       0.14476478
Ti      -0.11791461       3.43561880       0.11920113       0.74171036      -0.02863058       0.08584143
Zr       1.83744335       5.25874051       1.67183734      -0.51358658      -0.43969640       0.03724278
Zr      -0.07517323       3.61396570       3.45591224       0.08052838      -0.08453244      -0.05871858
Ti       1.87310676       4.94499020       5.01057795      -0.13193406       0.38968694       0.22467393
Zr      -0.01507867       3.43792213       6.74668734       0.48151445       0.42591828       0.07413575
Ti       1.79792213       5.20615156       8.42271510      -0.23106241      -0.26975557      -0.06596777
Zr      -0.06799935       6.91162104      -0.16960455      -0.02234778      -0.29145789       0.01736512
Zr       1.73859223       8.58125331       1.60087463      -0.43826121      -0.51379871       0.35444668
Ti       0.12889507       6.80094158       3.42629311      -0.24047577       0.05540890       0.36367172
Ti       1.86612425       8.38637525       5.05480158      -0.70729810       0.00621468       0.28678221
Ti      -0.11374044       6.98534900       6.76147729       0.18401167      -0.32225221      -0.14829379
Zr       1.84446016       8.48528623       8.51058354      -0.67938906      -0.24795923      -0.41442248
Zr       3.48673161       0.01424505      -0.10079793      -0.02595568       0.46976537       0.30727294
Ti       5.09658994       1.62784178       1.69039739       0.29903665       0.05489730       0.45618615
Zr       3.15260185      -0.18297149       3.30371915       1.17934763       0.56233072       0.59544599
Ti       5.15698683       2.01594893       5.13129479      -0.04203166      -0.57003349      -0.10497510
Zr       3.34181013      -0.09375990       6.92676779       0.52590579       0.41222697      -0.83188653
Zr       5.15992893       1.70632856       8.54718966       0.35433087       0.01212183      -0.24656372
Zr       3.34120793       3.26312924       0.10894113      -0.08443095       0.32509619      -0.53681046
Zr       5.15270815       4.98132045       1.54473603      -0.18454823      -0.12541464       0.72318417
Ti       3.37726952       3.32047746       3.31850696       0.25811064      -0.01530433       0.15775049
Zr       5.14682692       5.18041204       5.20099142      -0.23505482      -0.46790385      -0.45514756
Ti       3.32749445       3.32591854       6.78080501       0.10281840       0.21233249       0.25858128
Ti       4.97618228       5.16879088       8.53512844       0.24795556      -0.44852468      -0.12860224
Zr       3.51135290       6.80482107      -0.06383201      -0.22283199      -0.40883604      -0.09901415
Zr       4.99809523       8.54718936       1.53858994       0.71745265       0.10805738       0.81089234
Ti       3.21325019       6.76397273       3.44738555       0.61605591       0.12078238       0.07177011
Ti       5.14008715       8.45105161       5.18404729       0.13827595       0.35595009      -0.46305126
Zr       3.60192192       6.90109430       6.75175746      -0.55296159      -0.61591113      -0.07668181
Ti       4.97433670       8.50391116       8.57451248       1.15849483       0.21918689      -0.29583335
Ti       6.78410057      -0.00850388       0.12853381       0.33474493      -0.19245708      -0.23926879
Zr       8.39826183       1.74579552       1.79590381      -0.16080213      -0.28845337      -0.09529771
Ti       6.78791210      -0.01927067       3.66828506      -0.05587727       0.04761470      -0.14980292
Ti       8.58868526       1.77526727       5.14403248      -0.40784669      -0.24222207      -0.09118692
Ti       6.81368057      -0.02818408       6.58024943       0.02949101       0.05115848       0.17936930
Zr       8.62193573       1.90510828       8.59764625      -0.44539943      -0.81554049       0.10086956
Ti       6.80462743       3.42936845       0.08783855      -0.17782608      -0.33737904      -0.16537024
Zr       8.41166796       5.17200005       1.71611866       0.44558209      -0.08198935       0.27403745
Ti       6.91197749       3.30973770       3.45238321      -0.32908633       0.17709796       0.20271331
Ti       8.40332324       5.18061742       5.23534961       0.21415804       0.24942812      -0.20663032
Zr       6.82414003       3.54492413       6.94560677      -0.31953892      -0.28040570      -0.44112983
Zr       8.51803594       4.91063412       8.59167775       0.16284733       0.88620031      -0.30919135
Zr       6.87573101       6.77358284      -0.00431675       0.02736538       0.59550858      -0.48859155
Ti       8.65907383       8.48616683       1.85772023      -0.40359664       0.12845358       0.01878864
Zr       6.74442122       6.76139313       3.37528281       0.22659734       0.52410507       0.41752657
Ti       8.67997116       8.65803666       5.10660169      -0.19877574      -0.24637085      -0.07947174
Ti       6.70996742       6.82375849       6.81120326       0.45728660       0.36254671       0.26972812
Ti       8.57803323       8.56495678       8.39977555      -0.60006112       0.09575617      -0.09683937
54
Lattice="10.23 0.0 0.0 0.0 10.23 0.0 0.0 0.0 10.23" Properties=species:S:1:pos:R:3:forces:R:3 group=TiZr_rattle10_b9 composition=TiZr energy=-438.6214599609375 pbc="T T T"
Zr       0.13917649      -0.04262721      -0.02220875      -0.49318597       0.59221059       0.29686397
Ti       1.60129501       1.77727970       1.62929640       0.16468556      -0.04665434       0.10945634
Ti       0.13965135      -0.08166873       3.14940928      -0.29040489       0.34179986       0.60439008
Ti       1.76944344       1.71466750       5.20917762      -0.61146837      -0.03882820      -0.22525896
Ti      -0.18560984       0.04107452       6.86357382       0.55752039       0.05772517      -0.23648685
Ti       1.83716906       1.70883672       8.60218042      -0.59449363      -0.12046590      -0.02111332
Zr      -0.21278942       3.40954261      -0.13418924       0.10682843      -0.14504561       0.49387404
Zr       1.72415454       4.99217923       1.67006960      -0.37698236       0.15280762      -0.08751480
Ti       0.13837303       3.32102019       3.42089292      -0.37518433       0.01949883      -0.11999197
Zr       1.66669903       5.15845051       5.07531954      -0.21386354      -0.28772685       0.00586678
Ti       0.11450994       3.46287699       7.02146687      -0.13503921      -0.22898242      -0.48624170
Ti       1.59351295       5.06231072       8.60538721       0.62402880       0.08570409       0.04625738
Zr      -0.06482970       6.74654647      -0.15976865      -0.00783208      -0.30827367       0.96647394
Zr       1.76801299       8.54368513       1.66849946      -0.44896644      -0.39257738       0.18857777
Ti       0.00766005       6.75795179       3.42486104      -0.28710720       0.11904725      -0.16197172
Ti       1.72583656       8.52531171       5.14944313      -0.53667933       0.24337049      -0.24244142
Zr       0.05709329       6.59654935       6.90583232      -0.28589258       0.28906062      -0.39288050
Zr       1.66144981       8.52670412       8.57065476       0.32663971      -0.06784591      -0.39864963
Zr       3.52537406      -0.16686779       0.03413276      -0.10812634       0.41930571       0.01446638
Ti       5.25869344       1.60905427       1.56272374       0.09297701       0.27146775       0.45460746
Zr       3.49985538       0.05162842       3.43509472      -0.48642382       0.56585389       0.05670190
Ti       5.04938611       1.72311586       5.21367815       0.22926310       0.14175613      -0.37492117
Zr       3.39073214       0.09181125       6.77691913      -0.30182976      -0.35323045      -0.05740762
Zr       4.94551758       1.53398350       8.53768898       0.88307989       0.16593933       0.03458586
Zr       3.49037579       3.48104197      -0.02032778      -0.11881500      -0.27474245       0.40239710
Ti       5.10067932       5.21502462       1.59415788       0.41251373      -0.34935623       0.41151059
Zr       3.39870597       3.43853880       3.42831587       0.27164024      -0.50688106      -0.19093624
Ti       5.05563208       4.94456923       5.04639784       0.23658027       0.43264753       0.03102356
Zr       3.31538848       3.36545265       6.95756506      -0.03026663       0.33170170      -0.46672463
Zr       5.13440571       5.09682260       8.55811617       0.33502844      -0.01574722      -0.21877331
Ti       3.66656988       6.70281354      -0.06786659      -0.68326372       0.27686030      -0.02839970
Zr       5.04656037       8.52042325       1.79143716       0.69705451      -0.09233835      -0.20253798
Zr       3.33386309       6.82858677       3.22995477       0.11936950      -0.31304973       0.36706862
Zr       5.06384357       8.40993465       5.12248772       0.35193700      -0.07893346      -0.09546268
Zr       3.43464425       6.93660846       6.68244328      -0.08108722      -0.48809099       0.44620705
Ti       5.14066426       8.47011875       8.53837290       0.15680033       0.13867736      -0.04322825
Ti       6.77845772       0.02462370      -0.00556039       0.32993206      -0.04553149       0.12086151
Ti       8.52165754       1.72042668       1.66194044      -0.14624375      -0.04769464       0.28570938
Zr       6.81913424      -0.11889031       3.67115563       0.33237928       0.58207774      -0.47750989
Zr       8.53436959       1.94851024       5.07981669       0.41272166      -0.43911704      -0.26232377
Ti       6.65640263      -0.09154170       6.76550969       0.42738926       0.08890851       0.17272078
Zr       8.51425120       1.77701098       8.37748243      -0.35381031      -0.33390838       0.26584104
Ti       6.71614901       3.36301149       0.04426869       0.35065189       0.02465437       0.11661822
Ti       8.36256744       5.11200221       1.76378369       0.37453988      -0.20888689       0.10590030
Ti       6.84047878       3.57779560       3.34498672      -0.10540909      -0.18832847      -0.07656284
Ti       8.59217948       5.12814849       5.19540380      -0.15120609      -0.01727206      -0.34333140
Zr       6.83230225       3.34720410       6.63935606      -0.11542347       0.40474775       0.18596584
Ti       8.46870849       5.05661338       8.51763089      -0.49082899       0.03498038      -0.22255835
Zr       6.91512260       6.91679931       0.10993526      -0.17802915      -0.24476601      -0.05681106
Ti       8.45725763       8.56845901       1.82377406       0.24706717       0.03587502       0.00368486
Ti       6.92137344       6.74127981       3.31411699      -0.02748707      -0.18538831       0.37810346
Zr       8.61612491       8.44043891       5.22298795       0.04329676      -0.10156232      -0.13289401
Ti       6.52445559       6.84664375       6.84912911       0.79302597      -0.32370502      -0.09280273
Zr       8.63153843       8.48806087       8.76099590      -0.84160042       0.42825288      -0.84999770
16
Lattice="7.052065933442676 0.0 0.0 0.0 7.052065933442676 0.0 0.0 0.0 7.052065933442676" Properties=species:S:1:pos:R:3:forces:R:3 group=TiZr_strain_vol_b0 composition=TiZr energy=-129.80812072753906 pbc="T T T"
Zr      -0.02689482      -0.06191997       0.06182361      -0.30800226       0.29884028      -0.34659505
Zr       1.78165138       1.72535256       1.74006303      -0.05308765       0.33174706       0.28645614
Ti      -0.03966457      -0.00120869       3.51471028      -0.12754305       0.15874253       0.19011085
Ti       1.77901386       1.72089651       5.23677112      -0.05618218       0.19810787      -0.07384761
Zr       0.03368819       3.48138000       0.02597604      -0.25886294      -0.15406528      -0.25782895
Zr       1.74355005       5.38324973       1.74576045       0.00706570      -0.43219426       0.28398043
Ti       0.04343915       3.49737886       3.47463040      -0.15662944      -0.11548372       0.20377645
Zr       1.76000013       5.30560528       5.31616690      -0.03786204      -0.24553549      -0.26207596
Zr       3.42771176       0.03212180       0.03070549       0.46125716       0.16566513      -0.33669707
Ti       5.28525913       1.77579814       1.75251436      -0.01651949       0.12580407       0.15671484
Zr       3.53809022      -0.00091568       3.53292545       0.25768703       0.19691437       0.26553583
Ti       5.27803790       1.81655512       5.25324213      -0.00336561       0.13702662      -0.10325494
Ti       3.50895514       3.49143971      -0.00375072       0.17095079      -0.08740154      -0.15465218
Zr       5.25858918       5.27667014       1.82894430       0.02181977      -0.24987969       0.09537406
Ti       3.47834428       3.56504839       3.50864207       0.14607546      -0.18397236       0.17946839
Ti       5.31903674       5.25544666       5.29498538      -0.04680138      -0.14431569      -0.12646517
16
Lattice="7.140909068481671 0.0 0.0 0.0 7.140909068481671 0.0 0.0 0.0 7.140909068481671" Properties=species:S:1:pos:R:3:forces:R:3 group=TiZr_strain_vol_b0 composition=TiZr energy=-129.32388305664062 pbc="T T T"
Ti      -0.00808803      -0.02951729      -0.04477051      -0.04236886      -0.02069370      -0.01672297
Zr       1.74925713       1.81918105       1.78269811       0.12158486       0.04554948      -0.08118526
Zr       0.01031201      -0.03629576       3.56227559      -0.13074742      -0.05520825       0.08003278
Ti       1.75126438       1.75739539       5.29046783       0.06920707       0.06523161       0.10716091
Zr       0.08135469       3.57811251      -0.01979379      -0.15336764       0.08805457      -0.07117931
Ti       1.82927326       5.38661873       1.80821449       0.05026743      -0.09183598      -0.08132643
Zr      -0.01962334       3.60742611       3.55253864      -0.09973641       0.04477560       0.08385011
Zr       1.78953045       5.35347061       5.31445032       0.09676850      -0.07610814       0.13053003
Zr       3.53166147      -0.00117636       0.03280650       0.10720363      -0.07130965      -0.12916502
Zr       5.38368548       1.78285002       1.80599755      -0.10224395       0.08396421      -0.14022000
Zr       3.56302751       0.00254972       3.57672677       0.10875167      -0.06078539       0.07006860
Ti       5.31364987       1.78761886       5.36589089      -0.02012783       0.08284375       0.05432654
Ti       3.56611537       3.59719996      -0.00761841       0.04531474       0.03578351      -0.05438146
Ti       5.29158541       5.36480349       1.78349316      -0.03916727      -0.07236230      -0.07234265
Ti       3.59828514       3.56360474       3.62218111       0.06015533       0.02861918       0.03417799
Ti       5.35249238       5.29137363       5.35226224      -0.07149396      -0.02651835       0.08637613
16
Lattice="6.82 0.0 0.0 0.0 6.82 0.0 -0.10877036635532109 0.0 6.82" Properties=species:S:1:pos:R:3:forces:R:3 group=TiZr_strain_shear_b0 composition=TiZr energy=-130.40248107910156 pbc="T T T"
Ti      -0.00858114      -0.00311998       0.00573420      -0.02112071      -0.27419189      -0.04482482
Zr       1.63947709       1.63101935       1.66233500       0.12584646      -0.42258811       0.05827315
Ti      -0.04588979       0.03271821       3.41598422      -0.07095454      -0.24265958      -0.01268242
Zr       1.57084168       1.75794719       5.08502013       0.16746351      -0.62065136       0.00394377
Zr       0.02442191       3.37393769      -0.03031340      -0.08496177       0.41409370       0.09317436
Ti       1.70410675       5.09818827       1.73176073      -0.01572371       0.34377497      -0.08259305
Zr      -0.05011127       3.42928091       3.36539921      -0.06877816       0.25356078      -0.00265400
Ti       1.57265493       5.17802780       5.08187193       0.09241110       0.23040372       0.04914407
Ti       3.40824514      -0.03416972      -0.01916903      -0.01883610      -0.15411420      -0.00884414
Ti       5.07737086       1.67864746       1.69309154      -0.03508948      -0.27604300       0.01773464
Ti       3.33038035      -0.01927968       3.40698433       0.04717241      -0.12395724       0.02749862
Zr       5.05401655       1.71009284       5.14100541      -0.14245838      -0.54044068      -0.06280641
Zr       3.39390507       3.36834831      -0.02041907       0.03022733       0.33696538       0.09127046
Zr       5.12296470       5.11916429       1.72728304      -0.11465706       0.45665795      -0.04527684
Zr       3.33899555       3.37547023       3.42099134       0.05095685       0.26320025      -0.08486539
Ti       4.99568321       5.09052986       5.10954027       0.05850244       0.35598943       0.00350809
16
Lattice="6.82 0.0 0.0 0.0 6.82 0.0 -0.07940773744842625 0.0 6.82" Properties=species:S:1:pos:R:3:forces:R:3 group=TiZr_strain_shear_b0 composition=TiZr energy=-130.3470916748047 pbc="T T T"
Ti       0.01576662       0.00460787       0.01061964      -0.39462671       0.05200212      -0.06956263
Zr       1.65450629       1.69341679       1.71300295       0.17540035      -0.43701190      -0.11239737
Ti       0.00246507       0.01178650       3.45978386      -0.39182001       0.00107940      -0.04098821
Zr       1.57333943       1.67360451       5.14723169       0.30810514      -0.31941193       0.06434616
Zr       0.02334550       3.41210993      -0.03224529      -0.51294363      -0.14682370      -0.07977465
Zr       1.69274176       5.04484936       1.67089323       0.11614300       0.57711911      -0.01024088
Zr      -0.03868326       3.40756782       3.40489453      -0.45274508      -0.11137241       0.11823988
Zr       1.65102525       5.11621658       5.15444356       0.19660527       0.41005260       0.01516151
Ti       3.38815005       0.02895764       0.00958849       0.34165549       0.04577276      -0.10399254
Ti       5.03615279       1.73551876       1.66813886       0.03591958      -0.34436327      -0.00850557
Ti       3.36448062      -0.00782744       3.36971291       0.24554345       0.08124448       0.17187595
Ti       5.04358220       1.72266347       5.07776429      -0.11688806      -0.33374467       0.15145519
Ti       3.41609040       3.42663860       0.02141138       0.25099906      -0.16606179      -0.19987892
Zr       5.09043655       5.09919609       1.72221096      -0.08769828       0.45360237      -0.12031534
Zr       3.33904479       3.39346684       3.41895419       0.42305878      -0.11531135       0.17459697
Ti       5.06574215       5.09280942       5.12602373      -0.13670839       0.35322836       0.04998036
16
Lattice="6.82 0.0 0.0 0.24628573222209754 6.82 0.0 0.0 0.0 6.82" Properties=species:S:1:pos:R:3:forces:R:3 group=TiZr_strain_shear_b0 composition=TiZr energy=-130.4912567138672 pbc="T T T"
Zr      -0.03472792      -0.00513769       0.01693290       0.20183569       0.21026233       0.12514915
Ti       1.78260917       1.70946542       1.71896627      -0.12782283       0.11070424       0.24207954
Ti       0.01783992      -0.04202606       3.39515189       0.02558295       0.24929520      -0.03542601
Ti       1.80180480       1.68250115       5.13714120      -0.15595211       0.15080556      -0.32604721
Zr       0.12226329       3.40208383      -0.00986011       0.25259978      -0.17192315       0.17929253
Zr       1.90175570       5.14879598       1.77120131      -0.08416772      -0.20460610       0.20503734
Ti       0.11989531       3.44443962       3.37472638       0.18272857      -0.20247641      -0.01252954
Ti       1.88449421       5.13539943       5.11044134      -0.04035607      -0.14407906      -0.17840689
Zr       3.37945900       0.01747522       0.01321270      -0.02594587       0.09242432       0.08495820
Ti       5.15670091       1.73639760       1.67929471       0.13795570       0.00990509       0.34643856
Zr       3.41403162      -0.03224777       3.40129107      -0.02977681       0.18642709      -0.05581822
Zr       5.23914520       1.75294672       5.05465286       0.04830085      -0.02456209      -0.31730890
Zr       3.56132504       3.41561947       0.02508751      -0.24055529      -0.09526582       0.07832921
Ti       5.35597422       5.10805066       1.72726872      -0.07049036      -0.06931522       0.17620359
Ti       3.54470314       3.40150498       3.41234574      -0.09118000      -0.07499813      -0.06003176
Zr       5.34623677       5.09567063       5.17134272       0.01724341      -0.02259799      -0.45191967
16
Lattice="6.982168187260984 0.0 0.0 0.0 6.982168187260984 0.0 0.0 0.0 6.982168187260984" Properties=species:S:1:pos:R:3:forces:R:3 group=TiZr_strain_vol_b0 composition=TiZr energy=-130.46490478515625 pbc="T T T"
Zr      -0.01840666       0.04467103       0.00798581      -0.23286821      -0.10355688      -0.05479854
Zr       1.73418619       1.71725477       1.75512016       0.00684536      -0.17067756       0.20273425
Ti       0.00644669      -0.01053513       3.49475463      -0.22614846       0.01456696       0.00530341
Ti       1.73032826       1.72231556       5.24549725       0.00458198      -0.05565820      -0.21387197
Zr      -0.00748326       3.49035186      -0.01112471      -0.21136367       0.01980162      -0.03424238
Ti       1.70191574       5.24028002       1.77247670       0.06307250       0.15936550       0.05701075
Zr       0.00048144       3.52091795       3.44271472      -0.24647352      -0.04492145       0.11598828
Zr       1.73679887       5.25413844       5.20371888       0.01517309       0.18989958      -0.17804971
Zr       3.41069382       0.01652674      -0.02346796       0.35640866      -0.06590270       0.02094446
Ti       5.25936825       1.72738754       1.73174755      -0.08174362      -0.09894931       0.15444094
Ti       3.50576895       0.04900348       3.47482328       0.15717170      -0.08547980       0.03371252
Ti       5.20701695       1.76421192       5.21840318       0.02360564      -0.15833661      -0.14770874
Zr       3.47104104       3.48165809      -0.01765119       0.22618186       0.04301035      -0.00359689
Ti       5.24532784       5.19972394       1.72725552      -0.03021192       0.23804164       0.11582290
Zr       3.48857810       3.51438874       3.44688334       0.22329614      -0.02015428       0.07916306
Ti       5.24845749       5.24666108       5.24307137      -0.04752768       0.13895126      -0.15285236
16
Lattice="6.82 0.0 0.0 0.0 6.82 0.0 0.0 0.14576448313382678 6.82" Properties=species:S:1:pos:R:3:forces:R:3 group=TiZr_strain_shear_b0 composition=TiZr energy=-130.54046630859375 pbc="T T T"
Ti       0.02565226       0.03472533       0.03304178      -0.35090742      -0.11769404      -0.29404822
Zr       1.65762675       1.73345227       1.63944961       0.17349780       0.39039329       0.22195110
Zr       0.05864284       0.01970038       3.36750320      -0.34577492       0.11811844       0.41742724
Zr       1.70387879       1.83085038       5.15735328       0.02063625       0.27824503      -0.22208565
Ti       0.01553296       3.40698783      -0.00061507      -0.31400555       0.06821118      -0.18778872
Zr       1.72530514       5.17323623       1.68418331       0.00041237      -0.39894837       0.08286832
Ti       0.00855118       3.50292931       3.39218156      -0.15681495      -0.06962980       0.27264830
Zr       1.68408820       5.22846846       5.17776769       0.04985338      -0.29471278      -0.18549657
Zr       3.37755373      -0.02891164      -0.02629312       0.40972713       0.05033612      -0.22423457
Zr       5.14221743       1.75810457       1.71816548      -0.08346058       0.23633471       0.03414455
Ti       3.39713494       0.10058799       3.36162337       0.16145554       0.02822677       0.29343563
Ti       5.10744449       1.79982309       5.18219134       0.03553598       0.20231444      -0.18356068
Ti       3.43238773       3.39715012       0.01729866       0.19663593       0.03406575      -0.18386990
Zr       5.12071291       5.16485197       1.75182303      -0.01296430      -0.25618041      -0.09744553
Ti       3.42009578       3.51073200       3.38969118       0.11668605      -0.10653654       0.24255851
Ti       5.05638602       5.21029944       5.09380997       0.09948720      -0.16254377       0.01349620
16
Lattice="6.489290935602535 0.0 0.0 0.0 6.489290935602535 0.0 0.0 0.0 6.489290935602535" Properties=species:S:1:pos:R:3:forces:R:3 group=TiZr_strain_vol_b0 composition=TiZr energy=-127.72574615478516 pbc="T T T"
Zr       0.00962966      -0.03218611       0.00525262       0.00453026      -0.27945569      -0.02571748
Zr       1.66548636       1.60442312       1.62496337      -0.01876783       0.00371918       0.08825848
Ti      -0.03778210      -0.01739156       3.22227046       0.13058263      -0.17560011       0.10874480
Zr       1.60251883       1.63559052       4.89920881       0.46750656      -0.32060593      -0.29374826
Ti       0.05333934       3.18117423       0.00134499      -0.23161560       0.38202962       0.25848508
Zr       1.62281152       4.86293736       1.59796776       0.24782193      -0.02017003       0.09268805
Zr      -0.00255507       3.21508905       3.28706220      -0.04963338       0.19830295      -0.31779715
Ti       1.59735432       4.79619762       4.83811825       0.42220551       0.33302405       0.03488084
Ti       3.27038425       0.00774532      -0.00064558      -0.10097587      -0.34650186      -0.18190069
Zr       4.82694456       1.60157356       1.63168599       0.04706168       0.20958513      -0.10650980
Ti       3.25549495       0.01852619       3.21249691      -0.10341930      -0.36616215       0.30289945
Zr       4.86954668       1.62584672       4.88432863      -0.36478281      -0.15746713      -0.05001210
Ti       3.22054421       3.23535166      -0.01953387       0.12626025       0.28303784       0.09663221
Ti       4.84835335       4.89516363       1.64727478      -0.16940278      -0.22426380      -0.11281157
Ti       3.24948219       3.22300767       3.20685097      -0.02409562       0.27107924       0.10398570
Zr       4.87622997       4.80631563       4.87770651      -0.38327622       0.20944835       0.00192222
16
Lattice="6.82 0.0 0.0 0.0 6.82 0.0 0.0 0.0 6.82" Properties=species:S:1:pos:R:3:forces:R:3 group=TiZr_md600_b0 composition=TiZr energy=-130.5092315673828 pbc="T T T"
Zr       0.00000000       0.00000000       0.00000000      -0.37876073       0.13253976      -0.13255551
Zr       1.70500000       1.70500000       1.70500000      -0.13116348       0.13116671      -0.12765251
Zr       0.00000000       0.00000000       3.41000000      -0.38360080       0.13309655       0.13309717
Ti       1.70500000       1.70500000       5.11500000      -0.09256779       0.09258486       0.07467539
Ti       0.00000000       3.41000000       0.00000000      -0.27522174      -0.09037340      -0.09037435
Zr       1.70500000       5.11500000       1.70500000      -0.13646331      -0.13647279      -0.13082758
Ti       0.00000000       3.41000000       3.41000000      -0.28094262      -0.09466136       0.09465456
Zr       1.70500000       5.11500000       5.11500000      -0.13117078      -0.13115466       0.12766545
Ti       3.41000000       0.00000000       0.00000000       0.26623118       0.08892494      -0.08892407
Ti       5.11500000       1.70500000       1.70500000       0.09336238       0.09337183      -0.07749269
Zr       3.41000000       0.00000000       3.41000000       0.40142179       0.13951053       0.13951337
Ti       5.11500000       1.70500000       5.11500000       0.09682339       0.09681587       0.07770866
Zr       3.41000000       3.41000000       0.00000000       0.37875396      -0.13254727      -0.13255128
Ti       5.11500000       5.11500000       1.70500000       0.09633626      -0.09632912      -0.07752694
Zr       3.41000000       3.41000000       3.41000000       0.38359731      -0.13310727       0.13309103
Ti       5.11500000       5.11500000       5.11500000       0.09336507      -0.09336518       0.07749918
16
Lattice="6.82 0.0 0.0 0.0 6.82 0.0 0.0 0.0 6.82" Properties=species:S:1:pos:R:3:forces:R:3 group=TiZr_md600_b0 composition=TiZr energy=-129.7366485595703 pbc="T T T"
Zr       0.11715045       0.00524933       0.01711186      -0.94151461       0.47523934       0.18242446
Zr       1.68448965       1.90415197       1.95267805       0.28482100      -0.54662859      -0.25665432
Zr      -0.22539832      -0.01206818       3.38846323      -0.03172597       0.05158743       0.00627433
Ti       1.59039275       1.58322161       5.35553820       0.34179205       0.51123303      -0.89207071
Ti       0.11252828       3.29571162       0.00654111      -0.10615438       0.33292827      -0.18482341
Zr       1.76320332       5.32524595       1.75624051      -0.05087930      -0.22479118      -0.26270843
Ti      -0.08078314       3.35239825       3.28611363       0.18226781       0.74283469       0.63024127
Zr       1.45910677       5.25086043       5.18029066       0.45055881      -0.68967521      -0.28105921
Ti       3.52717178       0.05511105      -0.28052953       0.24982335       0.07855614       0.43331915
Ti       5.28610832       2.12807043       1.68766730      -0.47094119      -0.92558002      -0.27974570
Zr       3.50639113      -0.06789146       3.45978997       0.28091425       0.57869494       0.02191821
Ti       5.28802984       1.85247987       4.99956328      -0.32260635       0.01098108       0.36756977
Zr       3.33464018       3.32031550       0.04995969       0.23723990       0.06304289      -0.55448276
Ti       5.30123936       5.13882241       1.37163543      -0.41257581      -0.14852738       0.21744727
Zr       3.48848416       3.62437401       3.27360109       0.10007519      -0.36940631       0.62708461
Ti       5.10198472       4.91447547       5.15895280       0.20890553       0.05951105       0.22526549
16
Lattice="6.82 0.0 0.0 0.0 6.82 0.0 0.0 0.0 6.82" Properties=species:S:1:pos:R:3:forces:R:3 group=TiZr_md600_b0 composition=TiZr energy=-129.7358856201172 pbc="T T T"
Zr      -0.14633412       0.52362398      -0.02611523      -0.25701654      -0.64095378       0.05422097
Zr       1.56911203       1.69668299       1.74677763       0.30098957       0.65702009       0.53502554
Zr       0.09716673      -0.00340173       3.54393657      -0.85415709      -0.15717682      -0.22688551
Ti       1.58701717       1.90921152       4.92844590       0.08740367       0.45764139      -0.02498676
Ti       0.00979134       3.59187747       0.22497962      -0.09044223      -0.00199696      -0.27992788
Zr       1.79601729       5.32343731       1.52660646      -0.19912526      -0.28085339       0.15127188
Ti       0.00192940       3.65657707       3.21623512      -0.02101645       0.36746937       0.15141012
Zr       1.85569757       5.23495128       4.94129223      -0.52487183      -0.37550050       0.54457593
Ti       2.97425436       0.29921953      -0.14822399       1.17891228       0.05894539      -0.12403749
Ti       5.10655766       2.00463584       1.97668239       0.07403606      -0.36047685      -0.51626676
Zr       3.62029497       0.14876132       3.51098948       0.24472111       0.17602216       0.17039445
Ti       5.46124536       2.09348676       4.99716312      -0.48111829       0.11645940       0.11414522
Zr       3.30901364       3.29975515       0.03694172       0.36797884      -0.06657788      -0.18689024
Ti       4.88398928       5.38568965       1.39692553       0.33645329       0.08624531       0.49826604
Zr       3.69688465       3.70017283       3.50995467      -0.18315211      -0.11902735      -0.07323553
Ti       5.13927347       5.22032005       5.63154179       0.02040528       0.08276067      -0.78707999
16
Lattice="6.82 0.0 0.0 0.0 6.82 0.0 0.0 0.0 6.82" Properties=species:S:1:pos:R:3:forces:R:3 group=TiZr_md600_b0 composition=TiZr energy=-129.4000701904297 pbc="T T T"
Zr       0.04415922       0.18787710      -0.18493802      -0.26555455       0.04635091       0.48765481
Zr       1.83752229       1.98196096       1.50512302       0.19503309      -0.02134520      -0.20549917
Zr      -0.01992611       0.69273551       3.34123318      -0.60280824      -0.50802726       0.17727703
Ti       2.03270335       1.83267028       5.21227529      -0.43380576       0.71043402       0.61150372
Ti       0.13526626       3.45152955       0.29525673      -0.63970089       0.52907121      -0.41413623
Zr       1.64502722       5.39163543       1.96817228      -0.47713107      -0.32440543      -0.72662771
Ti      -0.04882164       3.38414486       3.53546598      -0.03760438       0.37351054      -0.17761317
Zr       1.69434436       5.06058047       5.14671409      -0.67767650       0.21127829       0.12203301
Ti       3.38793764      -0.02680638      -0.03224313       0.40976793       0.61363399       0.01345538
Ti       4.77768289       1.89986174       1.57229978       0.63074315       0.00618769      -0.20320430
Zr       3.08973654       0.31624627       3.41103526       1.60251725      -0.31989449       0.20725794
Ti       5.29693382       2.14684632       5.38403109      -0.60579443      -0.28953141      -0.12208417
Zr       3.71302377       4.15338619      -0.07212132       0.16147798      -1.05843031       0.43014294
Ti       5.37217784       5.29417674       1.94324082      -0.17028832       0.27082974      -0.03781911
Zr       3.34218526       3.63200696       3.35726106       0.91784102      -0.07737434       0.30647653
Ti       5.30212273       5.49341181       4.98654352      -0.00701588      -0.16228798      -0.46881750
16
Lattice="6.82 0.0 0.0 0.0 6.82 0.0 0.0 0.0 6.82" Properties=species:S:1:pos:R:3:forces:R:3 group=TiZr_md1400_b1 composition=TiZr energy=-129.26478576660156 pbc="T T T"
Ti       0.12478613      -0.14415165      -0.03783758      -0.18656312       0.36191979       0.50028896
Ti       1.81432683       1.83352043       1.64075858      -0.95716172      -1.04134130       0.87257600
Ti      -0.26430628       0.12549638       3.51976885       0.82212025      -0.88724101      -1.01577222
Zr       1.56798837       1.71752467       4.92100440       0.22594690      -0.44005883      -0.13742565
Zr       0.27495619       3.48162448       0.06590836      -0.87138498      -0.22118032       0.11937019
Ti       1.71045638       5.00062851       1.84378614       0.31307846       0.81434023       0.06313267
Ti       0.07555251       3.82759886       3.45934650      -0.66682637      -0.79651535      -0.51395577
Zr       1.63068531       5.07284615       5.13513296       0.65061188       0.67443866      -0.50730765
Zr       3.39601237      -0.10198114       0.02424318      -0.30941045      -0.07156643       0.20271447
Zr       5.01630517       1.72914617       1.65237414       1.38942242       0.17301057      -0.05086565
Ti       3.72228352       0.23834390       3.28712874      -1.13985300      -1.08099055       0.12192667
Zr       5.19197223       1.64270175       4.98612100      -0.10684404       0.84251511       0.70444107
Zr       3.35734561       3.15511256       0.14187412       0.36106038       0.95396686      -0.70486146
Ti       5.12458927       4.98499326       1.50205632       0.00843399       0.33874667       0.66799104
Ti       3.28247246       3.27590399       3.38185846       0.39899725       0.50533140       0.04205787
Zr       4.98780051       5.09832833       5.17732503       0.06837188      -0.12537545      -0.36431119
16
Lattice="6.82 0.0 0.0 0.0 6.82 0.0 0.0 0.0 6.82" Properties=species:S:1:pos:R:3:forces:R:3 group=TiZr_md1400_b1 composition=TiZr energy=-128.91050720214844 pbc="T T T"
Ti       0.24543244      -0.08993121       0.13995910      -0.37717128      -0.51451260      -0.71512985
Ti       1.47586247       1.29105815       1.89057197       0.67218256       0.79536575      -0.20488656
Ti      -0.42708394      -0.33035521       2.88833751       0.25411671       0.48081216       1.33897805
Zr       1.38205873       1.60844658       4.48318499       0.30369520       0.12547748       1.02472019
Zr       0.43829675       3.47821459       0.18362665      -0.05674284       0.72346914      -0.11537600
Ti       2.00072799       5.32795056       2.25859572      -0.82475418      -0.97161597      -1.08576524
Ti      -0.31488039       3.61628266       3.11528746       0.87196785       0.06486239       0.63321584
Zr       1.68144915       5.24006829       4.82892456      -0.45569015      -0.33081806       0.61085367
Zr       3.26169284      -0.34392845       0.23360330       0.04233921       1.18805945      -0.77565652
Zr       5.45567303       1.84397566       1.41554410      -1.19072950      -0.59105301       0.49040842
Ti       3.46701201       0.12274176       3.46156476       1.23120821       0.50536495       0.23802587
Zr       5.43623105       1.92401168       5.15076353      -0.66932178      -0.92132890      -0.38794786
Zr       3.12928327       3.03970412       0.02052105       0.14053455       0.08342838       0.07928057
Ti       4.98190007       5.04858200       1.63281956      -0.54711729      -0.51770550      -0.58652455
Ti       3.48702163       3.37726364       3.34119008       0.00478491      -0.52282983       0.00393686
Zr       4.92945668       4.97990001       5.34175735       0.60069793       0.40302438      -0.54813313
16
Lattice="6.82 0.0 0.0 0.0 6.82 0.0 0.0 0.0 6.82" Properties=species:S:1:pos:R:3:forces:R:3 group=TiZr_md1400_b1 composition=TiZr energy=-129.4537811279297 pbc="T T T"
Ti       0.26185261      -0.45687599       0.06083034      -0.25202215       0.08273894       0.17426687
Ti       1.71044017       1.78575094       1.59767209      -0.07160320      -0.23681287       0.15391599
Ti       0.41589165      -0.16578684       3.10332974      -0.71235406      -0.06960073      -0.31013876
Zr       1.43515781       1.67077010       5.12043452      -0.04193626       0.47279289      -0.38572162
Zr      -0.22731120       3.38495666       0.38094093       0.19100153       0.41309941      -0.68491906
Ti       2.30690152       4.99215757       1.65309368      -1.91860366       0.71981215       0.58819425
Ti      -0.17763418       3.53963937       3.07395173       0.47043610      -0.39744207       0.27022147
Zr       1.78327048       5.00359279       4.67387755      -0.55129921      -0.41542971       0.68670195
Zr       3.25169538       0.09737585      -0.40273527       0.21015078      -0.23303950       0.69226408
Zr       5.13820593       1.27193588       1.76621098       0.06665510       0.33915237      -0.15866812
Ti       3.17084760       0.08295304       3.27780510       0.31031379       0.46695715       0.25360364
Zr       5.39295680       1.33150623       5.09238117      -0.16696262       0.33921579      -0.29013425
Zr       3.25250529       3.52861171       0.03273284       0.90986621      -1.20260143      -0.99904621
Ti       4.83363697       5.24823640       1.87700155       0.89345151       0.01962791      -0.31107330
Ti       3.45244153       3.24560646       3.37576029       0.14636791      -0.79340017      -0.12493068
Zr       5.04233387       4.88741467       4.80643478       0.51653838       0.49492991       0.44546381
16
Lattice="6.82 0.0 0.0 0.0 6.82 0.0 0.0 0.0 6.82" Properties=species:S:1:pos:R:3:forces:R:3 group=TiZr_md1400_b1 composition=TiZr energy=-129.3835906982422 pbc="T T T"
Ti       0.17406877      -0.62159964       0.01207150      -0.05477724       1.06268573       0.12421883
Ti       1.73939004       1.71458393       1.46675981      -0.37970087      -0.41043425      -0.22784619
Ti       0.20920668      -0.47409466       3.26755408       0.32830679       1.30978012      -0.27491644
Zr       1.22453217       1.74228839       5.07000577       0.68821800      -0.45323607       0.46198773
Zr      -0.12325801       3.46772734       0.28362510      -0.13221562      -0.15656906      -0.11932449
Ti       1.80461685       5.03999646       1.85071257       0.58403373      -0.24293505      -0.29815668
Ti      -0.11568860       3.07757249       3.18235969       0.23813286       0.65845007      -0.30593231
Zr       1.71618166       4.79902853       4.91776671       0.40274587       0.06553602      -0.25847864
Zr       3.50440759      -0.17520285      -0.26803940      -0.50794101       0.24504942       0.35852283
Zr       5.02550560       1.38269693       1.74272649       0.59899622      -0.45062935      -0.73424411
Ti       2.98702583       0.48051469       3.39359362       0.17652094      -1.16753888       0.07641572
Zr       5.21611936       1.48637177       4.87855611      -0.20704038       0.12220030       0.53663898
Zr       3.47086099       3.49356546      -0.12411640       0.08025973      -0.33494192       0.17819612
Ti       5.11070494       5.32427385       1.91623429      -0.73037195      -0.51583254      -0.27345264
Ti       3.49421564       3.08696575       2.99734810      -0.21991450       0.93745345       0.63299704
Zr       5.31158481       5.16046710       4.79638081      -0.86525249      -0.66903812       0.12337412
16
Lattice="6.5600000000000005 0.0 0.0 0.0 6.5600000000000005 0.0 0.0 0.0 6.5600000000000005" Properties=species:S:1:pos:R:3:forces:R:3 group=TiNb_rattle05_b0 composition=TiNb energy=-142.84799194335938 pbc="T T T"
Ti      -0.04915570       0.05174570      -0.07037830       0.04820852      -0.10616558       0.23118000
Nb       1.71062328       1.65719550       1.61529777      -0.13366696       0.02894742      -0.00952964
Nb       0.01930187       0.11538861       3.29647167      -0.04747093      -0.11751106      -0.12747478
Nb       1.57464174       1.67505708       4.93160070       0.36348465      -0.09847926      -0.05401783
Ti       0.09330639       3.15699962      -0.06172379      -0.30528766       0.29311886       0.22289354
Nb       1.64122142       4.88940345       1.67635665      -0.04690517       0.11613055      -0.35662252
Ti       0.09202125       3.32601349       3.25528261      -0.23076351      -0.09507740      -0.07256007
Nb       1.61623843       4.88533199       4.85081870       0.13334990       0.19148384       0.32700595
Ti       3.22404104       0.00094573       0.08318754       0.13498032      -0.07186499      -0.28437957
Ti       4.86316288       1.62122325       1.77715212       0.18690947       0.17626253      -0.33699542
Nb       3.30793291       0.01164348       3.24743854      -0.05741212       0.04647794       0.24468932
Ti       4.90725142       1.68833410       4.86548948      -0.12305318      -0.05187289       0.04576582
Ti       3.26849938       3.30231721      -0.05352797       0.12950008       0.04992793       0.09418580
Nb       4.97089436       4.96832774       1.64673068       0.02130327      -0.20836425      -0.25427949
Ti       3.28381389       3.35526174       3.26009362       0.04134560      -0.05443187       0.05914160
Nb       4.97596259       4.94909800       4.85667011      -0.11452239      -0.09858163       0.27099732
16
Lattice="6.5600000000000005 0.0 0.0 0.0 6.5600000000000005 0.0 0.0 0.0 6.5600000000000005" Properties=species:S:1:pos:R:3:forces:R:3 group=TiNb_rattle05_b0 composition=TiNb energy=-142.80381774902344 pbc="T T T"
Ti       0.00231175      -0.01242816       0.11039398       0.12766008      -0.09797800      -0.21477912
Nb       1.65652021       1.65575760       1.70273069      -0.14409290       0.03311023      -0.30096090
Nb       0.00671898      -0.04166247       3.28750436      -0.15163973       0.03219573       0.11244582
Ti       1.63117513       1.56080125       4.91865447       0.03477650       0.04364785       0.12959598
Ti       0.17375929       3.26689422      -0.04505900      -0.30430868      -0.04442888       0.18638662
Ti       1.62363990       4.86866980       1.78154095       0.12531674       0.02527092      -0.24728285
Nb      -0.02281039       3.30537030       3.31908923       0.09914216      -0.12524489       0.02458280
Ti       1.64465528       4.90872015       4.98990354       0.13282384       0.08510661      -0.10562644
Nb       3.31862045       0.00299195       0.08442556      -0.13171543      -0.11054854      -0.25053203
Ti       4.97959168       1.59372361       1.62434377      -0.00856949       0.18750438       0.07208885
Nb       3.18697556       0.04316504       3.25316740       0.36311084      -0.41164869       0.29048228
Nb       4.93389877       1.60225141       4.91584214       0.07987542      -0.04633486       0.18104212
Ti       3.35578753       3.25108472       0.01193187      -0.15686937      -0.00706410       0.00219093
Nb       4.91574647       4.90740007       1.61479962       0.03309666      -0.15217651       0.02313358
Nb       3.28904427       3.17190019       3.29691692       0.03654054       0.37544200       0.08509997
Ti       4.97493732       4.85178262       4.92910008      -0.13514724       0.21314667       0.01213247
16
Lattice="6.5600000000000005 0.0 0.0 0.0 6.5600000000000005 0.0 0.0 0.0 6.5600000000000005" Properties=species:S:1:pos:R:3:forces:R:3 group=TiNb_rattle05_b0 composition=TiNb energy=-142.8509979248047 pbc="T T T"
Nb       0.04082137      -0.01743078      -0.12244487      -0.24796742       0.20576578       0.29858506
Nb       1.63327508       1.69298596       1.59626640       0.19569348      -0.12048954       0.09341683
Ti       0.07244593       0.01825048       3.24826142      -0.27461573       0.11843193      -0.03793719
Nb       1.58135927       1.71477008       4.99744666       0.28379139      -0.06960854      -0.33101287
Ti       0.05414787       3.30789334      -0.00294146      -0.16496314      -0.01830891      -0.08075865
Nb       1.59712764       4.93031305       1.65109378       0.30166721       0.01832435      -0.07167605
Nb      -0.01459529       3.27119922       3.20692336      -0.13574079      -0.08407311       0.20903723
Nb       1.56567828       4.91571403       4.91911849       0.34424984      -0.06118968      -0.12734222
Ti       3.24252230      -0.06306565      -0.04814826       0.07361394       0.13036016       0.08649033
Ti       4.97282816       1.69095364       1.51761933      -0.12927890      -0.26151142       0.19035089
Ti       3.16201029       0.01449016       3.25225320       0.21620676       0.05654792       0.00565578
Ti       4.85327600       1.68616600       4.93886645       0.14171495      -0.15502782      -0.12163461
Ti       3.37243462       3.30229725      -0.00515326      -0.22373553       0.10038100       0.02754652
Nb       4.94805564       4.91321332       1.56705950      -0.18290852       0.17963418       0.18276821
Ti       3.31359387       3.31047264       3.29420318      -0.06447753      -0.04503947      -0.09071334
Nb       4.91323338       4.93848622       4.91534160      -0.13324991       0.00580312      -0.23277587
16
Lattice="6.5600000000000005 0.0 0.0 0.0 6.5600000000000005 0.0 0.0 0.0 6.5600000000000005" Properties=species:S:1:pos:R:3:forces:R:3 group=TiNb_rattle05_b0 composition=TiNb energy=-142.8125457763672 pbc="T T T"
Ti       0.04428731      -0.05093027       0.01403790      -0.16963944       0.09320342      -0.11625260
Nb       1.56219257       1.59003944       1.55961603       0.27901611      -0.01231514      -0.04220409
Nb      -0.08002730       0.05152680       3.27483041       0.17182226      -0.39248753       0.02146794
Nb       1.63795630       1.65640767       4.86241469      -0.01504598      -0.10977140       0.27972719
Ti      -0.07546738       3.22449236       0.03360237       0.10839396       0.05820435      -0.19826299
Ti       1.53655839       4.83046170       1.62924956       0.19654180       0.21189055      -0.00147672
Nb       0.00736000       3.19222113       3.21542503      -0.13822213       0.35403204       0.17755193
Ti       1.66607383       4.88016234       4.97060872      -0.22429535       0.10764035      -0.12439844
Ti       3.29373703       0.04552355      -0.06114009      -0.02449711      -0.14623180       0.14572570
Ti       4.91883185       1.60911014       1.65756120      -0.22459355      -0.02393637      -0.02380285
Nb       3.25536407      -0.03605404       3.26048553      -0.08824500      -0.03724546      -0.09676873
Nb       4.88337534       1.69331963       4.94455765       0.00839189      -0.13212366       0.03484545
Ti       3.31039092       3.33263851      -0.01821953      -0.06061865      -0.15038219       0.09684750
Nb       4.91944281       4.82672172       1.60306602      -0.16367838       0.15654561       0.05521549
Ti       3.12988235       3.26388397       3.32073701       0.33561876      -0.00986217      -0.21869306
Nb       4.91539134       4.90115744       4.90705214       0.00905077       0.03283946       0.01047825
16
Lattice="6.5600000000000005 0.0 0.0 0.0 6.5600000000000005 0.0 0.0 0.0 6.5600000000000005" Properties=species:S:1:pos:R:3:forces:R:3 group=TiNb_rattle10_b1 composition=TiNb energy=-142.55630493164062 pbc="T T T"
Ti      -0.05536382      -0.03906871      -0.16935771       0.10985082       0.11428648       0.19541125
Ti       1.42527456       1.56038856       1.58157099       0.43062627       0.10554704       0.10859984
Nb       0.07826683       0.00228822       3.23947825       0.00920008       0.12501025       0.45293376
Ti       1.58168714       1.73726645       4.94134697       0.14828283      -0.23253359      -0.09085067
Ti      -0.00495254       3.23681122       0.05567828      -0.19050311       0.08971830       0.05195212
Ti       1.52528895       4.93754830       1.66272220       0.45768070       0.08396725      -0.33026963
Nb       0.02313495       3.41075596       3.23709661      -0.12873206      -0.44609666       0.00672883
Nb       1.69632352       4.78162897       5.02784973      -0.11975482       0.35009155       0.03526655
Nb       3.20536980       0.08465752      -0.05094698       0.09248641      -0.21512721       0.10614693
Ti       4.90930817       1.41154993       1.73103559       0.01448742       0.64446485      -0.23237208
Nb       3.29363393       0.01804936       3.28381550      -0.26719433       0.05132104       0.15242828
Nb       5.01737416       1.84377657       4.85882507      -0.23714104      -0.35131505       0.05566694
Nb       3.35055605       3.15647770       0.07792958      -0.12713823       0.25264356       0.25987858
Nb       5.01003912       5.01206260       1.71715428      -0.43946487      -0.33807492      -0.31127596
Ti       3.14492926       3.36898227       3.33290639       0.40095508      -0.23698139      -0.34006444
Ti       4.93801468       4.93301448       4.99211319      -0.15364105       0.00307851      -0.12018043
16
Lattice="6.5600000000000005 0.0 0.0 0.0 6.5600000000000005 0.0 0.0 0.0 6.5600000000000005" Properties=species:S:1:pos:R:3:forces:R:3 group=TiNb_rattle10_b1 composition=TiNb energy=-142.22348022460938 pbc="T T T"
Nb      -0.00404329      -0.11353437       0.14082972       0.17651968       0.84557444      -0.45427552
Ti       1.88857094       1.78731650       1.62360780      -0.27901515      -0.38828057      -0.25356928
Ti       0.20271950      -0.08647121       3.12013330      -0.77590114       0.53990066       0.05258936
Nb       1.48041650       1.62332560       4.77749931       0.52963424       0.19128016       0.56747216
Ti      -0.10819509       3.36379697      -0.11427556       0.47191986      -0.37076017       0.40147200
Nb       1.65954098       4.87257906       1.65429052       0.50082099       0.00752664      -0.30435690
Nb       0.15920395       3.11314514       3.15365228      -0.71842974       0.32747319      -0.00642346
Nb       1.45772423       5.11172124       4.78992047       0.61513305      -0.76365912       0.52051306
Nb       3.31312545       0.06317751      -0.12203438      -0.24977306      -0.01336858       0.12456912
Ti       4.79992623       1.67108892       1.54566816       0.31964961       0.03591919       0.13192141
Ti       3.38384972       0.02065655       3.32871674      -0.02690862      -0.02564927      -0.06052935
Ti       4.91176247       1.70064357       4.99917906       0.14622100      -0.25420824      -0.25721422
Ti       3.30393873       3.42505541      -0.00779141      -0.28084043      -0.08776300      -0.18147612
Nb       4.98700987       5.04708506       1.61288222      -0.39700830      -0.47228149       0.38130438
Nb       3.41723790       3.33406478       3.35745910      -0.10379341      -0.05064965      -0.01748991
Ti       4.93155315       4.81952917       5.03536944       0.07177161       0.47894588      -0.64450681
16
Lattice="6.5600000000000005 0.0 0.0 0.0 6.5600000000000005 0.0 0.0 0.0 6.5600000000000005" Properties=species:S:1:pos:R:3:forces:R:3 group=TiNb_rattle10_b1 composition=TiNb energy=-142.10401916503906 pbc="T T T"
Nb       0.04327883      -0.12666551      -0.21653197       0.15983257       0.38414878       0.96991551
Ti       1.78519517       1.32923732       1.67803742      -0.38384759       0.60254109      -0.10442563
Nb      -0.15036094       0.12182177       3.10751480       0.37959641      -0.21593198       0.25217247
Nb       1.56378901       1.65779624       4.94192548       0.26104361      -0.22780962      -0.32836324
Nb       0.17322488       3.23389024       0.05413433      -0.51108968      -0.13135833       0.33700472
Ti       1.74332753       4.79459760       1.70993779      -0.34734106       0.38094354       0.03175455
Nb      -0.06791806       3.49971458       3.28529398       0.61860514      -0.76090711      -0.05397008
Ti       1.69717453       4.77268692       4.91769679       0.19881967       0.30476135      -0.30090711
Ti       3.25155932      -0.08322972      -0.05064022       0.14622882       0.00463352      -0.02924858
Ti       4.87803293       1.65196650       1.65304671       0.29753536      -0.19247448      -0.54946160
Ti       3.36676748      -0.03075250       3.24233249      -0.19108658      -0.04032663       0.55039334
Nb       4.81461206       1.70452153       4.95549305       0.32198590      -0.20402004       0.24039419
Nb       3.22689756       3.32126668       0.11494941       0.35679618      -0.23053057      -0.41364819
Ti       4.73311740       4.80650667       1.83917631       0.68525928       0.62514246      -0.98196673
Nb       3.50182046       3.17950333       3.23725674      -1.06622577       0.04515114       0.66248292
Ti       5.18023077       4.98086406       5.06147919      -0.92611194      -0.34396318      -0.28212687
16
Lattice="6.5600000000000005 0.0 0.0 0.0 6.5600000000000005 0.0 0.0 0.0 6.5600000000000005" Properties=species:S:1:pos:R:3:forces:R:3 group=TiNb_rattle10_b1 composition=TiNb energy=-141.8160858154297 pbc="T T T"
Nb       0.25156336       0.11839801      -0.07876290      -2.10951447      -1.13398695       0.52054471
Nb       1.62852972       1.60026826       1.46704492       0.55508900       0.35401505       1.77125382
Ti       0.11890784       0.08054801       3.45751150      -0.37240604      -0.31274241      -0.65209234
Nb       1.84686083       1.40364785       5.03481719      -0.06485116       1.86860275      -1.55434299
Nb       0.06198383       3.20220127       0.14104961      -0.89932358       0.51674783      -0.49338362
Nb       1.51562884       4.96830347       1.62801526       0.06078354      -0.22238241       0.59038115
Ti      -0.12750098       3.14455913       3.22616700       0.24481308       0.19995250       0.23149015
Nb       1.65408059       4.92390879       4.94990092      -0.31216946      -0.95774448      -0.32392904
Ti       3.17210767       0.01937357       0.00494884       1.14379764      -0.56864727       0.43873543
Ti       4.83822892       1.48224911       1.70961362       0.03238535       0.08278503      -0.12387289
Ti       3.23274565      -0.27928156       3.42163146       0.19820714       0.51815826      -0.54996681
Nb       4.95032532       1.51274887       4.87167294      -0.11217627       0.39565602       0.10220504
Nb       3.19694333       3.42034340       0.03768766       0.70974344      -0.35057941      -0.02174715
Ti       4.76011920       4.97569276       1.66873548       0.58436191      -0.04198527      -0.08351522
Ti       3.22125407       3.27376616       3.24181672       0.06272224      -0.17358609       0.08407068
Ti       4.92030777       4.90127598       4.98540814       0.27853730      -0.17426324       0.06416880
16
Lattice="6.5600000000000005 0.0 0.0 0.0 6.5600000000000005 0.0 0.0 0.0 6.5600000000000005" Properties=species:S:1:pos:R:3:forces:R:3 group=TiNb_rattle18_b2 composition=TiNb energy=-139.7543487548828 pbc="T T T"
Nb       0.06521203      -0.00069553       0.00014599      -0.55379397       0.54449195       0.09354259
Nb       1.46272624       1.91808607       1.61273251       0.52666688      -2.42457986       0.00111577
Ti       0.02963795      -0.15185868       3.10170892      -0.96676928       1.20754421      -0.24925578
Ti       1.56742618       1.43904669       5.00442744      -0.14086774       1.89063954      -0.60164469
Ti      -0.33352254       3.46947540       0.23159604       1.21721077      -0.73251688      -1.38734531
Ti       1.55465552       5.00158370       1.46065315       0.28248298       1.26226926       0.35911602
Nb       0.05166587       3.36788419       2.95620812      -0.78067327       0.10467398       2.05915022
Nb       1.49218997       5.36989198       4.63128240       1.06081808      -2.35141230       1.48307717
Ti       3.45366505       0.27742921      -0.16508473      -1.05521035      -0.88384634       0.71630311
Ti       4.88741357       1.67125797       1.36721615       0.02540803      -0.39610723       1.04570544
Nb       3.40162509       0.04514519       3.28184660      -0.54311264       0.21020292      -0.58449090
Ti       4.82572666       1.47459040       4.69007764       1.03116941       1.16285622       0.41078478
Nb       3.07958347       3.43100233       0.44497871       0.43352568      -0.32177287      -3.31496763
Nb       4.72710909       5.03216876       1.67384847       0.66301453       0.82448709       0.09221944
Nb       3.37343181       3.34200438       3.15844932      -0.40515217      -0.18776235       1.56546462
Ti       5.00450472       4.88410043       5.24588627      -0.79471672       0.09083318      -1.68877518
16
Lattice="6.5600000000000005 0.0 0.0 0.0 6.5600000000000005 0.0 0.0 0.0 6.5600000000000005" Properties=species:S:1:pos:R:3:forces:R:3 group=TiNb_rattle18_b2 composition=TiNb energy=-139.75698852539062 pbc="T T T"
Nb       0.34077401      -0.33860345       0.21255517      -1.26162875       2.32713127      -1.14071894
Nb       1.47067310       1.66924810       1.85143324       0.84208596      -1.12237167      -1.31224930
Nb       0.24589198      -0.24735148       3.45338329      -1.30909455       0.84832513      -0.63563436
Nb       1.56315999       1.61491487       4.82641770       0.16390145      -1.16835213       1.67152607
Nb       0.31365404       3.35995709       0.18346882      -1.74287927      -1.19126534      -1.17052841
Ti       1.38637210       4.86250412       1.80804230       2.33978820      -0.45064461       0.29772222
Nb       0.17267465       3.18298142       3.43056067      -2.41103029       0.96869677      -0.00245267
Ti       1.73739005       4.80697510       4.99357948       0.24461830       0.08749995       0.27635232
Ti       3.32488241      -0.28076005       0.05784983      -0.32777441       0.77073646       0.01612797
Ti       4.74838809       1.71283511       1.46988420       0.58647990      -0.41645908       0.46721938
Ti       3.01062626      -0.03682400       3.46835230       1.31879735      -0.16342376      -0.87406266
Nb       4.96314044       1.48307312       4.66542363      -0.18169338       0.34361073       0.80947191
Ti       3.05910898       2.90129882      -0.26312005       1.15534306       0.88362467       0.96821111
Ti       4.86519012       4.90686135       1.43627256      -0.19664833      -0.44857121       0.94143742
Nb       3.05224148       3.32816381       3.30261195       1.89556086       0.25411594      -0.40578830
Ti       5.19195368       5.26114940       4.96003546      -1.11582541      -1.52265298       0.09336700
16
Lattice="6.5600000000000005 0.0 0.0 0.0 6.5600000000000005 0.0 0.0 0.0 6.5600000000000005" Properties=species:S:1:pos:R:3:forces:R:3 group=TiNb_rattle18_b2 composition=TiNb energy=-140.5894317626953 pbc="T T T"
Ti       0.11791716       0.01616982       0.21432372      -0.28841022      -0.51933986      -1.63222003
Nb       1.79424889       1.46212460       1.46372922      -0.56649917       1.07925844       0.19598833
Ti      -0.09407241       0.05271807       3.44374133       0.15164509       0.46416774      -0.13315006
Ti       1.89255661       1.71309523       4.75996672      -1.52725196      -0.84263122       1.02967858
Nb      -0.06625998       3.02871393      -0.10411179       1.22408736       1.58863509       0.11818235
Nb       1.41659056       5.19403595       1.80156349       0.31974530      -2.38066411      -0.78503895
Ti      -0.05728194       2.99939365       3.04448520       0.61401439       0.42767787       0.56528217
Ti       1.94577738       4.98659526       4.78711596      -1.01951337      -0.41442436       1.04174113
Nb       3.61510082      -0.03133731      -0.16454316      -0.61215425      -0.93896317       0.32349098
Ti       5.05709145       1.58070577       1.40507237      -0.74930781      -0.36661950       1.45248675
Nb       3.03801754      -0.01175129       3.10916363       2.39785647       0.03461479       0.69277567
Nb       4.92357317       1.77108236       4.97118993       0.50003207      -0.96643901      -1.00111389
Nb       3.30364133       3.06965890       0.11688128      -0.18088700       1.92205405       0.04241250
Ti       5.02234942       4.78880875       1.83904624      -0.54109269       0.16970192      -0.57092106
Nb       3.23752937       3.13597342       3.48459985       0.58034980       1.20330465      -1.87518740
Ti       5.15947814       4.96755180       4.70691107      -0.30261400      -0.46033335       0.53559309
16
Lattice="6.5600000000000005 0.0 0.0 0.0 6.5600000000000005 0.0 0.0 0.0 6.5600000000000005" Properties=species:S:1:pos:R:3:forces:R:3 group=TiNb_rattle18_b2 composition=TiNb energy=-140.33921813964844 pbc="T T T"
Ti       0.25425573      -0.17525515       0.17441722      -0.62794310       0.29056028      -0.77018774
Nb       1.36906312       1.66688808       1.76794293      -0.09506315      -0.96613353      -0.23060602
Nb      -0.13602089      -0.17246850       3.23414249      -0.06554960       0.50190187       0.25381321
Ti       1.49306288       1.78543194       4.98104285       0.30437267      -0.90345120      -0.27476969
Nb       0.15207245       3.09479849      -0.03211513      -0.27951258       1.44127107      -0.01504297
Nb       1.82312964       5.02938528       1.76315192      -1.54630268      -1.77756000       0.46947658
Ti      -0.18067651       3.36478728       3.19736241      -0.27425823       0.09414132       0.12132128
Ti       1.70257577       4.79886661       4.79452716      -0.02783060      -0.29901427       0.78240585
Nb       3.08967620      -0.24957807       0.22356162       0.82681721       1.64021349      -1.94411802
Ti       4.95716653       1.64648185       1.32347801       0.97166950      -1.76078248       1.90768528
Ti       3.07183088      -0.02855519       3.44944663       0.95957828       0.57225591       0.03278919
Ti       5.01742071       1.64866571       4.86354151      -0.33889702      -0.28196877      -0.14416946
Nb       3.49385985       2.86858012       0.25624543      -1.88380301       2.08303285      -2.21269703
Ti       4.76810901       4.94455863       1.50090316       0.85200089      -0.37873843       0.81943041
Nb       2.96583831       3.00282499       3.03646315       1.97472620       0.80179459       1.65010202
Nb       5.09316183       5.19271618       5.14185750      -0.75000489      -1.05752206      -0.44543326
54
Lattice="9.84 0.0 0.0 0.0 9.84 0.0 0.0 0.0 9.84" Properties=species:S:1:pos:R:3:forces:R:3 group=TiNb_rattle10_b9 composition=TiNb energy=-479.8694763183594 pbc="T T T"
Nb      -0.23407607       0.16754994       0.03661008       0.99590027      -0.39174861      -0.11161925
Nb       1.68828514       1.79613488       1.71805676      -0.12806818      -0.89785814      -0.43684739
Ti       0.11027102      -0.09648349       3.28385008      -0.14463577       0.38819751      -0.07254833
Ti       1.85296148       1.75230228       4.92156624      -0.38942453      -0.52214313       0.01916118
Ti       0.01729695       0.05469076       6.73048875       0.01607040      -0.07261209      -0.25988433
Ti       1.61327252       1.73648312       8.20174123       0.15396526      -0.35053605       0.40221751
Nb       0.00736216       3.39598634       0.16175260      -0.06838243      -0.33250242      -0.03416157
Nb       1.70222786       5.02264400       1.69620920      -0.35106128      -0.26891655       0.10351811
Ti       0.11347218       3.10988919       3.33976010      -0.38172495       0.34111604      -0.02741300
Ti       1.68939498       4.88636899       4.86957110       0.14818639       0.15806544       0.00258814
Nb       0.10448666       3.17699469       6.61063337      -0.03188610       0.26230091      -0.36642596
Ti       1.47501258       4.88757838       8.02638566       0.40972659       0.28636932       0.38663900
Nb      -0.14151065       6.47651812       0.03256742       0.37498295       0.42606831      -0.03799086
Nb       1.44972842       8.09309011       1.60021705       0.40556639       0.43682182      -0.09478951
Ti      -0.03313828       6.58024948       3.44750537      -0.00308056      -0.23205516      -0.45676500
Ti       1.44080947       8.22490370       4.89312813       0.73296678      -0.05246090       0.20473886
Ti       0.04923216       6.67529405       6.49112284      -0.16368926      -0.11419258       0.22389027
Ti       1.64051292       8.17667553       8.32206209      -0.04918993       0.11747649      -0.07123473
Nb       3.49827062       0.01894679      -0.11046316      -0.85610908       0.08879235       0.49172345
Nb       4.96816795       1.62167934       1.82627082      -0.27738643      -0.07009019      -0.74631995
Ti       3.17046219      -0.16538620       3.23943547       0.08825501       0.15874378      -0.07787615
Nb       4.90782842       1.79446823       4.92539143      -0.32208100      -0.28762731      -0.11224188
Nb       3.37132354       0.01913876       6.53307045      -0.65982234      -0.12133865       0.24255209
Ti       4.94867197       1.58856169       8.14248060      -0.07042338       0.27902496       0.24621058
Ti       3.23040869       3.33234457       0.03302078       0.04333359      -0.22087091      -0.20057705
Ti       4.93938688       4.90379025       1.55988977      -0.11015297      -0.14813873       0.29547408
Ti       3.27669111       3.17319151       3.13218125       0.24153796       0.64197755       0.45086223
Nb       4.93740632       4.81466895       4.92400736      -0.06274725       0.50194824       0.07790607
Nb       3.20423107       3.29143498       6.58569292       0.45240387       0.25776047       0.20214641
Nb       4.98194093       4.88982860       8.39028274      -0.08634643      -0.00338937      -0.81292117
Nb       3.28137332       6.41010966      -0.05845001      -0.25303203       0.42576981      -0.04215242
Ti       4.93747838       8.11465446       1.67024276      -0.19944629       0.37026885      -0.12818354
Ti       3.35186483       6.52437323       3.04004269      -0.06907851       0.15001754       0.83621454
Nb       5.00710296       8.41411684       4.92833200      -0.64292270      -1.42772245      -0.24581175
Nb       3.33399581       6.61467267       6.52500162      -0.10170320      -0.06457122      -0.05561373
Ti       4.86844505       8.17627609       8.37742888       0.41502294      -0.26122820      -0.55850655
Nb       6.64157175       0.08576320       0.08610970      -0.45871919      -0.18241189      -0.22813705
Ti       8.19664633       1.47357892       1.77209699       0.01832707       0.59893918       0.05732709
Nb       6.49393537      -0.03925229       3.29870360       0.39208445      -0.00961597      -0.28106686
Nb       8.13437836       1.57079541       5.01373539       0.82413274      -0.34113279      -0.87413436
Nb       6.44287110      -0.04317999       6.43368789       0.53728867      -0.13808489       0.91536003
Nb       8.09323791       1.80338729       8.14322652       0.91033494      -1.09639108       1.23845649
Ti       6.56314106       3.38572769      -0.02142776       0.02247924      -0.52495021       0.30377966
Ti       8.03504533       4.92287892       1.70865018       0.61300671      -0.10550930       0.24230900
Nb       6.53409770       3.25874323       3.22592498       0.44885752       0.28041103       0.23490067
Ti       8.42249842       4.81835319       4.97146192      -0.41309267      -0.00983481      -0.01349364
Nb       6.78817293       3.05358688       6.61226892      -1.52096236       1.88883603      -0.67306900
Nb       8.25804523       4.92440612       8.35541324      -0.18258193       0.23236336      -0.57989192
Nb       6.57029079       6.56222704       0.23222834      -0.09901045       0.17697947      -0.52905220
Ti       8.19045577       8.16868612       1.58277061       0.10695153       0.05032335       0.26431838
Ti       6.48636731       6.55022840       3.26085344       0.09872849      -0.09189280       0.35935339
Ti       8.25627155       8.22326334       4.75747015      -0.24658222       0.00437377       0.51381361
Ti       6.65792393       6.40094142       6.59750758      -0.18939714       0.24444953      -0.08825748
Nb       8.13086190       8.33330927       8.15995213       0.08262992      -0.42756855      -0.09847385
54
Lattice="9.84 0.0 0.0 0.0 9.84 0.0 0.0 0.0 9.84" Properties=species:S:1:pos:R:3:forces:R:3 group=TiNb_rattle10_b9 composition=TiNb energy=-479.6189880371094 pbc="T T T"
Nb      -0.09131104      -0.15093249      -0.03335577       0.31811941       0.40249133       0.13639234
Nb       1.70246270       1.72010722       1.58532730      -0.29676902      -0.35881406      -0.06088664
Ti      -0.04094172       0.07847464       3.33355475       0.28204194      -0.08228821      -0.19294283
Nb       1.76154507       1.66367685       4.73189998      -0.65063721       0.08438432       0.49832475
Ti       0.03538398       0.15104680       6.61588446      -0.19642174      -0.14929840      -0.63796210
Nb       1.46353123       1.61583504       8.16305089       0.98102838       0.20518988       0.16634099
Ti       0.02591124       3.21575435      -0.12818272      -0.27123302       0.04928482       0.44393244
Nb       1.57202674       4.90818438       1.73985058       0.01539402       0.34459832      -0.56411719
Ti       0.05062974       3.40139550       3.18757150      -0.33510247      -0.47871184       0.05019147
Nb       1.40512866       4.87274415       5.02334697       1.27297616       1.24641252      -1.11229157
Nb       0.08379465       3.46929687       6.39153530      -1.12435687      -1.32027376       0.84024131
Ti       1.53997062       4.79903226       8.14738974       0.32921782       0.41508359       0.49669003
Ti      -0.09982241       6.45413912      -0.06972440       0.30243003       0.19708233       0.13065636
Ti       1.63605391       8.25450020       1.49172898      -0.17348000      -0.09621309       0.54053247
Ti      -0.05297935       6.66817884       3.16393564       0.06488952      -0.12202077       0.42670658
Nb       1.60740132       8.31982248       5.11859192      -0.19351728      -0.53626508      -0.72631979
Nb      -0.12692017       6.62338344       6.55566900       0.17899904      -0.51133001      -0.33417591
Nb       1.61025780       8.29890237       7.99854773       0.30293751      -0.34778357       0.74333596
Nb       3.31039268      -0.09741350       0.09343038      -0.14795154       0.47811249      -0.40408430
Nb       4.96370314       1.57582981       1.72295342      -0.08937317       0.00699764       0.00998481
Nb       3.36945451      -0.03289975       3.44927788      -0.34182692      -0.22548956      -1.02044201
Nb       4.79577800       1.69427286       4.85654191       0.83990169       0.05780223       0.48152411
Ti       3.23396395       0.03954274       6.48192668       0.33513045       0.40914679       0.55659676
Nb       5.17012519       1.70448150       8.33749217      -1.59761822      -0.69832766      -1.19552600
Ti       3.38826038       3.26930600       0.08712705      -0.36777112      -0.06995438      -0.13014364
Ti       4.91414865       4.97873112       1.70291396       0.01278211      -0.40321299      -0.22436532
Nb       3.19264252       3.35895236       3.23418210       0.52789521       0.22453433       0.15567607
Nb       5.04789386       5.00192507       5.12195638      -0.48661542      -0.19666769      -0.56248951
Nb       3.24109135       3.33588463       6.59848189       0.16727439      -0.33157414      -0.01603030
Nb       4.80898488       4.76119827       8.24977625       0.32554126       0.78356308       0.05864850
Ti       3.27946231       6.65341124       0.15798516      -0.28071958      -0.55376273      -0.71585274
Ti       4.72226809       8.03521049       1.51029043       0.68034685       0.60602671       0.59545469
Ti       3.29659135       6.51472652       3.26342130      -0.34476787       0.02206430       0.34216627
Ti       4.71220072       8.23866218       4.86723607       0.69337493      -0.30205709       0.25280935
Ti       3.15080804       6.48971382       6.69735898       0.27933037       0.04292128      -0.19505545
Ti       4.85645339       8.29447940       8.19160095       0.07436623      -0.31380901      -0.07574265
Ti       6.56002413       0.05100456      -0.07844277       0.20876582      -0.70353633       0.43339190
Ti       8.14690764       1.59350736       1.64762506       0.36510292       0.12469336      -0.15107873
Ti       6.66647200      -0.03034627       3.17041986      -0.54737008      -0.19359426       0.19632910
Ti       8.11074020       1.58368276       4.94189938       0.18704215       0.17839706      -0.10526311
Ti       6.70294923       0.04682892       6.76828672      -0.61466300      -0.20828927      -0.67725778
Nb       8.25039217       1.55429168       8.15620584       0.15143007       0.46861660       0.08534872
Nb       6.52970617       3.07990519      -0.05837269       0.78173375       1.28578782       0.89092779
Ti       8.10631697       4.90505892       1.64238311       0.21074176       0.01567394      -0.23759645
Ti       6.65029737       3.24909809       3.22902270      -0.40356177       0.00848878       0.08189894
Ti       8.16924414       4.78769709       4.84114091      -0.16343704       0.64166009      -0.04587401
Ti       6.61661064       3.27469839       6.52576065      -0.02488772       0.09942347       0.09090626
Ti       8.19155156       4.88477011       8.30054047      -0.40139171       0.08142921      -0.30025309
Nb       6.54097693       6.67908376       0.10112905       0.03858060      -0.30760556      -0.60851610
Nb       8.33611757       8.24814574       1.62617803      -0.46080351      -0.19646065      -0.04251287
Nb       6.48680655       6.46198403       3.12982240       0.17914723       0.41323254       0.44584760
Nb       8.10267342       8.30133409       4.88463515       0.18553889      -0.01332738      -0.25554699
Nb       6.51355704       6.76542663       6.38145756      -0.10493708      -0.45758867       0.56834257
Nb       8.34389213       8.12200874       7.99648580      -0.67284739       0.28515720       0.87312901
54
Lattice="9.84 0.0 0.0 0.0 9.84 0.0 0.0 0.0 9.84" Properties=species:S:1:pos:R:3:forces:R:3 group=TiNb_rattle10_b9 composition=TiNb energy=-479.7239990234375 pbc="T T T"
Nb      -0.02626303       0.11337641      -0.08704580       0.23111185      -0.04860161      -0.18387917
Ti       1.35611471       1.70600531       1.88712382       0.94632006       0.26817930      -0.91844028
Nb       0.14157778      -0.03574253       3.13005597      -0.90540111      -0.00422376       0.87807953
Ti       1.44910680       1.71957162       4.83680479       0.76113451      -0.54215598       0.23578930
Nb       0.02804284      -0.06743686       6.59217189      -0.04868102       0.33819941       0.14239076
Ti       1.76234455       1.68872433       8.31974720      -0.09820114      -0.09260705      -0.24269274
Nb       0.05131776       3.49809691      -0.04318709       0.22202140      -0.53951508       0.09595349
Ti       1.64968729       4.97911415       1.67146642      -0.09872593      -0.06169654       0.14806060
Ti       0.03612790       3.30803071       3.38656918      -0.63154179       0.27617535      -0.21336342
Ti       1.62262455       4.93961279       4.81578857       0.44126695      -0.08615997       0.10973560
Nb       0.09228308       3.12766300       6.46856483      -0.13097146       0.38802665       0.51936364
Ti       1.70488316       4.89697776       8.13024853      -0.08979218       0.05327714       0.21686096
Nb      -0.08727125       6.58463709      -0.10451719       0.43679368      -0.15786701      -0.18633527
Nb       1.47841063       8.33969222       1.51241179       0.78463501      -0.64429992       0.18091306
Nb      -0.11381238       6.42271454       3.32450217       0.47545922       0.51812398      -0.38408160
Nb       1.63147262       8.23746562       4.98059001       0.16431440      -0.42207989      -0.57666945
Nb       0.14271222       6.45418277       6.46638579      -0.13164636       0.41830835       0.76313758
Nb       1.68159213       8.13822701       8.24587904       0.11449277       0.18333986      -0.15782832
Ti       3.34479644       0.02642114      -0.01633150      -0.03261363       0.04232571       0.21737309
Ti       5.04423919       1.81407995       1.74513950      -0.09701417      -0.62634069      -0.06891245
Ti       3.24570985      -0.12103099       3.11689257       0.13748302       0.32656455       0.30723491
Ti       4.88694186       1.75940147       4.96844078       0.03981580      -0.43752494      -0.07407416
Nb       3.19994349      -0.10389914       6.38474090       0.20929822       0.86408448       0.53920412
Ti       4.88034321       1.72870975       8.21370341       0.01973463       0.03340114      -0.07478929
Ti       3.34482054       3.35149346       0.13723896      -0.40837064      -0.44259363      -0.41319886
Nb       4.65067698       4.97713086       1.46915696       1.60073352      -0.39782152       0.62260967
Nb       3.39416019       3.12450879       3.31260284      -0.45311153       0.35448942       0.05411878
Ti       4.82006787       4.98419440       4.94166687       0.52071071      -0.24097361      -0.24800503
Nb       3.30610655       3.38464014       6.62424037      -0.26090446      -0.61205393      -0.39794731
Nb       4.90200158       4.91712531       8.00852938       0.32898426      -0.23348232       0.75745720
Nb       3.25552819       6.53452718       0.14598966      -0.14299355       0.77288640      -0.82920742
Ti       5.07922025       8.33840109       1.67045990      -0.21470916      -0.41571611      -0.31078631
Nb       3.41463909       6.53702597       3.23712897      -0.57029098       0.23757890       0.08087827
Ti       4.62337610       8.02611411       5.03962214       0.91945624       0.44341454      -0.42082381
Ti       3.41937644       6.47242272       6.63316620      -0.76593089       0.29722685      -0.00664584
Ti       4.90885332       8.28304761       8.12691758      -0.21809795      -0.07251780       0.32093126
Nb       6.51105306       0.07663125      -0.11088224      -0.18642756      -0.14667670       0.41213945
Nb       8.29910075       1.62691586       1.56124875      -0.34536910       0.05567995       0.63264668
Ti       6.57196573      -0.14425086       3.35265194       0.05460361       0.36442125      -0.00456409
Ti       8.15125450       1.60609856       5.03665246       0.11582318      -0.15936588      -0.48141289
Nb       6.48051196       0.09964074       6.65173752      -0.07364580      -0.21254955      -0.44088668
Nb       8.16653401       1.67587763       8.30250482       0.10127122       0.17807919      -0.52500468
Ti       6.69779135       3.17495562       0.16001615      -0.39780712       0.49643290      -0.21451141
Ti       8.33843875       5.01047850       1.58482750      -0.51462179      -0.40710241       0.24771062
Nb       6.57303178       3.29660293       3.32487748       0.24344394       0.24744788       0.01378537
Nb       8.31647786       5.06857632       5.12388516      -0.83814859      -0.46401662      -0.48332870
Ti       6.65435677       3.26401223       6.45998782      -0.22919455       0.11256813       0.17297500
Nb       8.09203300       4.83673788       8.24090034       0.23868454       0.01335549      -0.40155005
Ti       6.63620690       6.43577357      -0.21793727      -0.61082375       0.28911245       0.57483131
Nb       8.27384155       8.10164696       1.43022135      -0.66508937       0.29839897       0.60412502
Ti       6.53556113       6.46909566       3.19394108       0.09867366       0.12292059       0.20212111
Nb       8.36638615       8.34678997       4.86623297      -0.73104298      -0.44104338       0.12716715
Ti       6.51524538       6.68396008       6.73295658       0.26776549      -0.09327469      -0.60184407
Ti       8.08230036       8.25824686       8.21672995       0.41713664       0.00824155      -0.31681001
54
Lattice="9.84 0.0 0.0 0.0 9.84 0.0 0.0 0.0 9.84" Properties=species:S:1:pos:R:3:forces:R:3 group=TiNb_rattle10_b9 composition=TiNb energy=-479.9306640625 pbc="T T T"
Ti       0.06063371      -0.00157633      -0.02074722      -0.36380205       0.28306952      -0.00575288
Ti       1.77644134       1.45211652       1.71303593      -0.60464019       0.67433286      -0.19689220
Ti      -0.03237004      -0.05977626       3.19132215      -0.29920220       0.17662007       0.10752319
Nb       1.49933344       1.54358853       4.96151191      -0.01509772       0.07331641      -0.00525576
Ti      -0.09669116       0.10842956       6.55764963      -0.06041963      -0.30741686      -0.03666967
Nb       1.60512252       1.68214569       8.24713900       0.31111109      -0.24738769      -0.15893099
Nb      -0.02971922       3.17202377      -0.18137120       0.53987747       0.35347676       0.78634322
Nb       1.70696802       5.06418869       1.71678856      -0.56485796      -0.91072005      -0.54479975
Ti       0.04861883       3.31094181       3.32102227       0.39884436       0.15664467       0.06728415
Nb       1.69186701       5.05283889       4.87361066      -0.43788996      -0.61602831       0.23972014
Ti       0.03068250       3.25321344       6.54848417       0.10390700       0.26201686      -0.24734278
Ti       1.56090462       4.96500717       8.23954299       0.29917693      -0.08490212       0.00494736
Ti       0.04671775       6.54363274       0.05572428       0.28652579      -0.07254034      -0.06458803
Ti       1.61019875       8.24411208       1.63982604       0.20681338      -0.05843038      -0.16170466
Nb       0.00542443       6.80026427       3.28962442      -0.37157130      -0.61410409      -0.35526487
Nb       1.55775185       8.18419927       4.79651565       0.33807528       0.52775168       0.60556066
Ti       0.11634035       6.53228921       6.47256168      -0.07492745       0.17661196       0.24464595
Ti       1.69055702       8.36708513       8.18407340      -0.02028266      -0.23037606      -0.02532943
Ti       3.33805774       0.03140706       0.22969844       0.02922180      -0.21408764      -0.58815694
Ti       4.85342113       1.59831020       1.84473281       0.75695455      -0.09209253      -0.75966531
Ti       3.35336158       0.00258616       3.27229760      -0.24566440      -0.49384618       0.30645552
Nb       4.84577893       1.63421972       4.98254158       0.46805626      -0.68748224       0.65582913
Ti       3.21741613       0.06566153       6.51610120       0.09748133      -0.15150645       0.10308924
Nb       4.76120477       1.60846270       8.33387940       0.51634133      -0.03109318      -0.34628379
Nb       3.39633215       3.35846442       0.04022257      -0.76575863      -0.45062488       0.47574866
Nb       4.92673891       5.01701447       1.73503129       0.26135847      -0.25937805      -0.27946639
Nb       3.34390478       2.93040285       3.44742906      -1.04959178       1.26593661      -0.75723416
Nb       4.81966509       4.93780154       4.82031803       0.65839159       0.39638427       0.50703144
Nb       3.28863616       3.44769383       6.48774046      -0.32169393      -0.46032292       0.52882779
Nb       4.82500907       4.84785403       8.34434784       0.83067024       0.21201701      -0.51670682
Nb       3.37973269       6.57138466      -0.01063626      -0.42575887       0.38747185       0.00084434
Nb       4.99802351       8.23628341       1.69227735       0.05545972      -0.12204416      -0.14774251
Nb       3.18452277       6.48110316       3.20630859       0.61687171       0.85121888       0.33495778
Ti       4.81816896       8.19757841       4.87201291       0.36281109      -0.12302408       0.09173532
Nb       3.37049423       6.52944762       6.61455547      -0.25475991       0.45833749      -0.00028449
Ti       4.90246378       8.15900344       8.26818771       0.09084016       0.40889806      -0.12233610
Nb       6.55804207      -0.00595421      -0.05945877       0.33751851       0.25195736      -0.00968390
Nb       8.32290359       2.01230689       1.81024904      -0.26565638      -1.24296713      -0.48749053
Nb       6.69891904      -0.08027645       3.20462583      -0.09522212       0.07903446       0.02085347
Ti       8.01744379       1.67362171       4.76913949       0.37635845      -0.10213581       0.34424224
Nb       6.52936738       0.01333775       6.48807666       0.09189777      -0.10392976       0.42005429
Ti       8.29724846       1.90006176       8.03266155      -0.80230647      -0.70675343       0.30239490
Ti       6.54434319       3.26419427       0.20335113      -0.10231037      -0.18217179      -0.45800370
Nb       8.19779184       4.80645242       1.62452654       0.14869083       0.51749241       0.07499592
Nb       6.33637702       3.26188809       3.37615656       0.79822636       0.24246097      -0.10268243
Ti       8.40000249       4.98061611       4.89494364      -0.58478457      -0.04949962      -0.00187752
Ti       6.49886634       3.35014668       6.47324196      -0.01411903       0.07920347       0.22405453
Ti       8.33426695       4.94021239       8.36455360      -0.38870597      -0.05793312      -0.41088992
Ti       6.63276517       6.58544045      -0.07351032      -0.19253191      -0.09842445       0.08625111
Ti       8.26069162       8.11100898       1.41385568      -0.18985811       0.33870220       0.28604040
Ti       6.67571263       6.55279029       3.20475317      -0.15973474       0.00169394       0.20354888
Nb       8.11785646       8.10631371       4.95298417       0.00332459       0.21636066       0.19145730
Ti       6.52211319       6.54047250       6.74275605       0.03466569      -0.11420958      -0.31993395
Nb       8.44024125       7.98737219       8.17794734      -0.34832388       0.49442285      -0.10346713
16
Lattice="6.5600000000000005 0.0 0.0 -0.03189334498777256 6.5600000000000005 0.0 0.0 0.0 6.5600000000000005" Properties=species:S:1:pos:R:3:forces:R:3 group=TiNb_strain_shear_b0 composition=TiNb energy=-142.96897888183594 pbc="T T T"
Nb       0.00979904      -0.07134021       0.00819466      -0.00380974       0.22686078       0.00352154
Nb       1.62720408       1.65104901       1.64092214       0.02401980       0.02214735       0.12220131
Nb       0.03523094      -0.00792625       3.26835659      -0.00075595       0.01277162       0.02823575
Ti       1.66217133       1.64437070       4.94942471      -0.06042787      -0.01596735      -0.08985047
Nb       0.00119099       3.27468387       0.03356860      -0.07657290      -0.03862354      -0.06831693
Ti       1.61021470       4.91995206       1.64688656      -0.00750662      -0.06777947       0.05864059
Ti      -0.08279670       3.26236032       3.32334500       0.23011184       0.12479892      -0.05589027
Ti       1.68366882       4.93598184       4.96619763      -0.13360049      -0.03799410      -0.12827006
Nb       3.24462540       0.01628566       0.01384991       0.16171180       0.03677006      -0.01138539
Ti       4.93581635       1.63097327       1.63893914      -0.06745129       0.02577212      -0.07985823
Ti       3.32095230      -0.00735597       3.25298943      -0.10551018       0.07044897       0.08029252
Ti       4.94366891       1.65484803       4.89606436      -0.06713630      -0.05730936       0.11158237
Nb       3.24889265       3.31766519      -0.04066020       0.12400700      -0.08831497       0.12212558
Ti       4.87576573       4.92060311       1.61860510       0.02984557      -0.05966791       0.02983560
Nb       3.23821640       3.29445797       3.28404900       0.06971278      -0.01953810      -0.03086856
Nb       4.94553843       4.98229478       4.92769463      -0.11663745      -0.13437515      -0.09199536
16
Lattice="6.577300804445497 0.0 0.0 0.0 6.577300804445497 0.0 0.0 0.0 6.577300804445497" Properties=species:S:1:pos:R:3:forces:R:3 group=TiNb_strain_vol_b0 composition=TiNb energy=-142.95460510253906 pbc="T T T"
Ti       0.03213843      -0.00353641       0.02343293      -0.10817495      -0.04479586      -0.08681031
Ti       1.63436097       1.66804890       1.64604416       0.03949111      -0.05746271      -0.09848858
Nb       0.02475047      -0.03158851       3.29906310      -0.02880980       0.05823672      -0.09355292
Ti       1.55581872       1.67828342       4.89060955       0.19954729      -0.07079088       0.10877006
Nb      -0.00948436       3.25681219      -0.03061396       0.03216728       0.11813237       0.08903980
Ti       1.65715168       4.92095312       1.59776836       0.05586755      -0.01871276       0.07056161
Ti      -0.02337763       3.27066680       3.24161893       0.05429551       0.03299938       0.09061396
Ti       1.63441485       4.93824067       4.90790167       0.07050154      -0.04646202       0.01903646
Nb       3.34122041      -0.00060701       0.02106420      -0.16091062       0.00878606      -0.03964579
Ti       4.91015062       1.62703770       1.62458804       0.05069538      -0.01434044      -0.01740191
Nb       3.25307012       0.06707881       3.29474374       0.00964408      -0.23937038      -0.07564808
Nb       4.94165099       1.65060452       4.90941990       0.02085426      -0.07662117       0.03693511
Nb       3.28132430       3.30091775      -0.02401265      -0.02820855      -0.01281877       0.04561991
Ti       4.99979709       4.90755410       1.71231611      -0.16578406       0.07208584      -0.18833289
Nb       3.29246958       3.22398092       3.23566328      -0.11576758       0.22750348       0.02850837
Nb       4.91494209       4.91468873       4.87896542       0.07459170       0.06363115       0.11079520
16
Lattice="6.393017311209736 0.0 0.0 0.0 6.393017311209736 0.0 0.0 0.0 6.393017311209736" Properties=species:S:1:pos:R:3:forces:R:3 group=TiNb_strain_vol_b0 composition=TiNb energy=-142.17626953125 pbc="T T T"
Nb       0.00736746       0.00625935       0.01519316      -0.01221281      -0.05868794      -0.16978818
Nb       1.63306860       1.62404104       1.57215798      -0.01032835      -0.26380533      -0.10949887
Nb      -0.00071097       0.04923187       3.21927951      -0.04014446      -0.20616667      -0.04213405
Nb       1.60652608       1.62898107       4.74819250       0.08863291      -0.23785296       0.26341459
Ti       0.00125300       3.19573514       0.01347605      -0.03432891       0.02845427      -0.12172589
Ti       1.61803308       4.77848064       1.60171150      -0.00336319       0.11595167      -0.00727519
Nb      -0.02692737       3.20179449       3.19248924      -0.05077070       0.13199216       0.07536186
Ti       1.52757180       4.79096672       4.77976161       0.17002934       0.04939549       0.00277744
Ti       3.22636309      -0.03521107      -0.02949195      -0.09708887       0.04304251      -0.00641405
Ti       4.81587614       1.61532396       1.56001039      -0.06245077      -0.05116339       0.04901905
Ti       3.19857521       0.02125136       3.15637689      -0.01091239      -0.07297798       0.04213719
Ti       4.79654570       1.58890216       4.76853392      -0.03660056       0.04121137       0.07209705
Nb       3.18245336       3.16313356      -0.02193528       0.25292534       0.31155199      -0.11426406
Nb       4.85361741       4.82687600       1.59414879      -0.32746455      -0.02033275      -0.12901706
Nb       3.18483604       3.18648479       3.17888547       0.22269318       0.25133660       0.10000925
Ti       4.79020455       4.81722421       4.75459323      -0.04861500      -0.06194894       0.09530094
16
Lattice="6.5600000000000005 0.0 0.0 0.0 6.5600000000000005 0.0 0.0 0.05763249206111056 6.5600000000000005" Properties=species:S:1:pos:R:3:forces:R:3 group=TiNb_strain_shear_b0 composition=TiNb energy=-142.89186096191406 pbc="T T T"
Ti       0.04334226       0.04920312       0.00593072      -0.10170250      -0.10261392       0.00819732
Nb       1.61325140       1.63296379       1.60954964       0.06533638       0.12499525       0.10266216
Ti       0.01488915       0.03010216       3.26757271      -0.03877976      -0.02996154       0.00337646
Nb       1.61426292       1.66795714       4.92755608      -0.02204025       0.09103752       0.00444800
Ti       0.05103808       3.30472988       0.05843261      -0.05637954      -0.03477916      -0.12896059
Nb       1.66888021       4.93768875       1.62189971      -0.10177584      -0.07180880       0.04783186
Nb       0.00423665       3.27768435       3.30765174      -0.05792621       0.18424651      -0.05975525
Ti       1.62613111       4.99139378       4.93265822       0.00808935      -0.06069336      -0.06261315
Nb       3.24221773       0.02137383      -0.01645701       0.22337255      -0.10344347       0.06604703
Ti       4.97753755       1.61840713       1.63513319      -0.21804893       0.09014113       0.03420379
Nb       3.24149103       0.01997375       3.29990786       0.18365347      -0.03578525      -0.08173567
Nb       4.91741485       1.69545839       4.94726579       0.07565048      -0.02670906       0.05334421
Ti       3.27162258       3.30641785      -0.01741304       0.02267274      -0.10588068       0.06730019
Ti       4.92797635       4.90644902       1.62274979      -0.01907574       0.10166509       0.08000861
Nb       3.29030359       3.30420951       3.32242416       0.04089310       0.04495643      -0.11130367
Ti       4.93733432       5.00806518       4.94699243      -0.00393952      -0.06536672      -0.02305123
16
Lattice="6.670306272417942 0.0 0.0 0.0 6.670306272417942 0.0 0.0 0.0 6.670306272417942" Properties=species:S:1:pos:R:3:forces:R:3 group=TiNb_strain_vol_b0 composition=TiNb energy=-142.73280334472656 pbc="T T T"
Nb       0.00535390       0.02510211       0.01814168      -0.02936886      -0.11263118       0.04844102
Nb       1.68656375       1.68030165       1.72368049      -0.06139588       0.03502239      -0.12641914
Ti      -0.02254914      -0.00006936       3.31126201       0.04442499      -0.00081570       0.09682915
Nb       1.64003636       1.63433988       4.99624735       0.02462313       0.10199185       0.06899392
Ti      -0.04970191       3.34469326       0.02140567       0.15016000      -0.02971606      -0.07041167
Ti       1.67354962       4.99511080       1.70880389      -0.00494274      -0.05248177      -0.08216628
Ti       0.00460088       3.32360334       3.37503192      -0.03415793       0.00615262      -0.01033961
Ti       1.64781847       5.02910536       4.99530788       0.03101306      -0.06685195       0.08777291
Nb       3.30983973      -0.01045191       0.02729883       0.02732202      -0.01273463       0.02666710
Ti       5.01528986       1.64233857       1.66089837      -0.06808814       0.04919352       0.00452989
Ti       3.31256936       0.01293364       3.34074778       0.05119561      -0.00770161       0.00915128
Nb       5.00439502       1.64560086       4.99687578      -0.01320284       0.01483222       0.01052699
Nb       3.36943757       3.32478813       0.00018890      -0.12163934       0.03517661       0.04785365
Ti       5.00051323       4.97809996       1.70979759      -0.05568729       0.04371016      -0.08370695
Nb       3.36490995       3.34050244       3.34951996      -0.05822823      -0.00568926      -0.00547293
Nb       4.95300344       5.01665016       5.01817468       0.11797244       0.00254285      -0.02224926
16
Lattice="6.5600000000000005 0.0 0.0 -0.22862049016524225 6.5600000000000005 0.0 0.0 0.0 6.5600000000000005" Properties=species:S:1:pos:R:3:forces:R:3 group=TiNb_strain_shear_b0 composition=TiNb energy=-142.8726348876953 pbc="T T T"
Nb       0.07065091      -0.03124919       0.01779551      -0.29979560      -0.00101118       0.01237428
Ti       1.57664557       1.62579518       1.64583979       0.00571983      -0.00181797       0.06235961
Nb      -0.01454191       0.00024203       3.28000939      -0.04642110      -0.03772621      -0.08686864
Nb       1.61506165       1.64153694       4.91004984      -0.03245442       0.16631339      -0.03077173
Ti      -0.10172909       3.22791134       0.03750437       0.02824499       0.15192610      -0.14794381
Nb       1.46139394       4.91573752       1.62932368      -0.00930576      -0.21919961       0.03153713
Ti      -0.10878248       3.25257295       3.29655146       0.00335991       0.08682837       0.01023123
Nb       1.48932857       4.94169465       4.87668317      -0.02734232      -0.25721505       0.09411763
Nb       3.24707429       0.04185664       0.01295758       0.25169438      -0.08601339       0.01680068
Ti       4.88175712       1.66793464       1.62265139      -0.04075806      -0.14767945       0.04913487
Nb       3.28820548      -0.00503333       3.26142643       0.10216118       0.05832503      -0.04607930
Nb       4.90022892       1.60047310       4.93806233      -0.02712745       0.17981637      -0.01430938
Ti       3.16643590       3.24766001       0.00503039      -0.02986539       0.06895885      -0.08230619
Ti       4.70268470       4.88588591       1.62618752       0.14076902       0.08069061      -0.01747962
Ti       3.19287414       3.28403912       3.26945889      -0.05753838      -0.06020366       0.05805750
Ti       4.75348229       4.92186347       4.91383951       0.03865919       0.01800782       0.09114571
16
Lattice="6.340586951786468 0.0 0.0 0.0 6.340586951786468 0.0 0.0 0.0 6.340586951786468" Properties=species:S:1:pos:R:3:forces:R:3 group=TiNb_strain_vol_b0 composition=TiNb energy=-141.58773803710938 pbc="T T T"
Ti       0.03509552       0.01932989       0.06227646       0.08028375      -0.09909111      -0.22232591
Ti       1.60925243       1.60678261       1.57268059       0.14371213      -0.10320427      -0.02147806
Ti      -0.02503161       0.03720028       3.19896343       0.08778675      -0.27528369      -0.14012507
Nb       1.56130293       1.64036288       4.69168484       0.29304346      -0.34438220       0.18062846
Nb       0.02823863       3.18569290       0.05827995       0.05653968       0.05962285      -0.20818111
Ti       1.59233878       4.70380107       1.58483471       0.03086966       0.28190717       0.11297598
Nb      -0.01560879       3.14159977       3.14466339       0.08572835       0.32716554      -0.07226352
Nb       1.56428458       4.75140941       4.73798594       0.03692055       0.32315949      -0.09960616
Nb       3.21439060      -0.00450624      -0.07485091      -0.38652080       0.06152742       0.23797491
Nb       4.77802695       1.55666568       1.55912933      -0.32880989       0.03662219       0.18932101
Ti       3.19221160       0.02318242       3.14932997      -0.12177578      -0.06687377      -0.04180218
Nb       4.78281540       1.60612808       4.75113815      -0.22696614      -0.11623955      -0.00991565
Ti       3.17907287       3.23548892      -0.02260900      -0.07194504      -0.32220036       0.01444624
Nb       4.73015357       4.74500244       1.54075588      -0.02645116       0.19227871       0.36897084
Ti       3.15549221       3.19778230       3.20001523       0.12483725      -0.08336680      -0.20310663
Ti       4.73454813       4.72400681       4.75249892       0.22274721       0.12835851      -0.08551312
16
Lattice="6.5600000000000005 0.0 0.0 -0.2059241850264407 6.5600000000000005 0.0 0.0 0.0 6.5600000000000005" Properties=species:S:1:pos:R:3:forces:R:3 group=TiNb_strain_shear_b0 composition=TiNb energy=-142.89242553710938 pbc="T T T"
Nb      -0.04498210       0.03454602      -0.00876970       0.04217058      -0.11883216      -0.01030244
Nb       1.57834138       1.63738297       1.67602714       0.05112078       0.02981745      -0.19676179
Ti       0.02785971       0.01481948       3.23776395      -0.05700448       0.00877599       0.11189287
Nb       1.59237187       1.65018363       4.94818991      -0.04096724       0.01392424       0.04225842
Ti      -0.11848988       3.29157477       0.00016732       0.06517550      -0.01178101       0.01716592
Nb       1.44657656       4.90798371       1.61799955       0.13403788       0.05154473      -0.04106485
Nb      -0.10450695       3.26986932       3.28635695       0.00493057       0.10154158      -0.02227457
Ti       1.49309135       4.93671026       4.91734111      -0.02147713      -0.02569157      -0.04305310
Ti       3.30649659       0.02235875      -0.03109222      -0.09557433      -0.05451319       0.06093640
Ti       4.86788324       1.64263212       1.60170317      -0.01905940       0.00464336       0.12010801
Nb       3.26679443       0.03133868       3.28830039       0.10955682      -0.21085897      -0.04449646
Nb       4.84581474       1.68553543       4.91148150       0.10910309      -0.10002562       0.08122168
Ti       3.17300566       3.28545087      -0.00470858      -0.05909329       0.00262564       0.02262861
Ti       4.75678563       4.93587833       1.62736242      -0.02882920      -0.01805214       0.03662315
Nb       3.22661960       3.25612150       3.28992802      -0.07740849       0.27043515      -0.06462595
Ti       4.82628674       4.92029861       4.92467574      -0.11668165       0.05644653      -0.07025588
16
Lattice="6.5600000000000005 0.0 0.0 0.0 6.5600000000000005 0.0 0.0 0.0 6.5600000000000005" Properties=species:S:1:pos:R:3:forces:R:3 group=TiNb_md600_b0 composition=TiNb energy=-142.96641540527344 pbc="T T T"
Ti       0.00000000       0.00000000       0.00000000       0.03972403       0.01312327      -0.01299076
Nb       1.64000000       1.64000000       1.64000000      -0.03698988       0.03012587      -0.03001555
Nb       0.00000000       0.00000000       3.28000000      -0.12443744      -0.03948106      -0.03948164
Nb       1.64000000       1.64000000       4.92000000      -0.04042338       0.03493091       0.03493292
Ti       0.00000000       3.28000000       0.00000000       0.02802878      -0.00976192      -0.00975991
Nb       1.64000000       4.92000000       1.64000000      -0.03932332      -0.03389103      -0.03389294
Ti       0.00000000       3.28000000       3.28000000       0.03972868      -0.01298578       0.01312686
Nb       1.64000000       4.92000000       4.92000000      -0.03698708      -0.03002354       0.03012003
Ti       3.28000000       0.00000000       0.00000000      -0.02641816       0.01023541      -0.01024556
Ti       4.92000000       1.64000000       1.64000000      -0.00811075      -0.01734721       0.01721409
Nb       3.28000000       0.00000000       3.28000000       0.11463483      -0.03509514      -0.03509483
Nb       4.92000000       1.64000000       4.92000000       0.03079484       0.02683751       0.02683026
Nb       3.28000000       3.28000000       0.00000000       0.10587692       0.03254218       0.03254077
Ti       4.92000000       4.92000000       1.64000000      -0.01157429       0.02381399       0.02382072
Ti       3.28000000       3.28000000       3.28000000      -0.02641521      -0.01024364       0.01023889
Ti       4.92000000       4.92000000       4.92000000      -0.00810859       0.01722018      -0.01734339
16
Lattice="6.5600000000000005 0.0 0.0 0.0 6.5600000000000005 0.0 0.0 0.0 6.5600000000000005" Properties=species:S:1:pos:R:3:forces:R:3 group=TiNb_md600_b0 composition=TiNb energy=-142.07418823242188 pbc="T T T"
Ti      -0.16041820      -0.07548695       0.07908865       0.03966233       0.15583140       0.19450201
Nb       1.54700289       1.71131206       1.84714132      -0.07863510      -0.15956813      -0.63220650
Nb      -0.23152184       0.09858747       3.43037875       0.62713099      -0.12286710      -0.12637937
Nb       1.56201766       1.61902878       5.19359358      -0.14242521       0.02607287      -0.20287731
Ti      -0.14790333       3.12859992       0.22806426       0.04658048       0.49718446      -0.20002532
Nb       1.38629682       4.95378803       1.76775485       0.17181394      -0.43234119      -0.35539871
Ti       0.04255521       3.06698957       3.51061703      -0.39357704       0.62947726      -0.09744396
Nb       1.54320177       4.95948848       4.99950404      -0.09932844      -0.37530890       0.17138419
Ti       3.15592060       0.08341669       0.01061916       0.02578071      -0.43476272       0.21686432
Ti       4.69784980       1.67921081       1.73748199       0.33597583      -0.12106462      -0.23142244
Nb       3.07324317      -0.14922809       3.17725504      -0.17405605       0.44265282       0.71007240
Nb       4.79289007       1.54491230       4.95844348       0.12003914       0.00143331       0.29434749
Nb       3.42346771       3.34706532      -0.16032310      -0.42938757       0.32734933       0.89496791
Ti       4.78374378       5.19578319       1.98901145       0.19449317      -1.16374612      -0.87305987
Ti       3.24892668       3.00411646       3.38482169      -0.26095361       0.97034436       0.01885972
Ti       4.85046304       4.94442038       4.86057536       0.01688644      -0.24068728       0.21781543
16
Lattice="6.5600000000000005 0.0 0.0 0.0 6.5600000000000005 0.0 0.0 0.0 6.5600000000000005" Properties=species:S:1:pos:R:3:forces:R:3 group=TiNb_md600_b0 composition=TiNb energy=-142.3204803466797 pbc="T T T"
Ti       0.02223979       0.11558740       0.11363435      -0.34784430      -0.21183790      -0.04926242
Nb       1.33913485       1.61355090       1.93110299       0.43759272       0.09644070      -0.55705702
Nb      -0.16225851      -0.04347412       3.38320367      -0.03478919      -0.06316337       0.11554135
Nb       1.52678044       1.61247548       4.97524966       0.18510664       0.10258563       0.26299325
Ti      -0.00430520       3.35457809       0.07252757      -0.16326775      -0.32923990      -0.07984947
Nb       1.30856229       4.87788723       1.73806320       0.52175093       0.05663866       0.12260711
Ti      -0.37870463       3.23543951       3.52219683       0.67115015      -0.01218060      -0.27089557
Nb       1.51058241       4.94374008       5.11757735       0.07618719       0.03743001      -0.38030377
Ti       3.30568368       0.15601182       0.12467391      -0.35308003      -0.43768466       0.03112392
Ti       4.75569203       1.57142019       1.78852937       0.09478885       0.20763293      -0.06717639
Nb       3.28484200      -0.23632891       3.32426954      -0.51898813       0.45723352      -0.17698322
Nb       4.83443656       1.76637002       5.13830648      -0.23061725      -0.38647622      -0.17040026
Nb       3.27189586       3.41728463       0.02710212      -0.31961671      -0.23163961       0.24903765
Ti       4.89735514       4.66156847       1.66465934      -0.25210795       0.55029076      -0.03227224
Ti       3.00111215       3.22366943       3.26728058       0.14630955       0.06095038       0.20896257
Ti       4.76101958       4.92986301       4.81653317       0.08742530       0.10301972       0.79393446
16
Lattice="6.5600000000000005 0.0 0.0 0.0 6.5600000000000005 0.0 0.0 0.0 6.5600000000000005" Properties=species:S:1:pos:R:3:forces:R:3 group=TiNb_md600_b0 composition=TiNb energy=-141.70799255371094 pbc="T T T"
Ti       0.15887039      -0.17041923       0.11850476      -1.07198060       0.20780110       0.09657809
Nb       1.19312437       1.63359214       1.75460656       0.56104654       0.19484702      -0.00271498
Nb      -0.15050457       0.08440126       3.32859407      -0.35725549      -0.34253064       0.41969067
Nb       1.47380268       1.71827309       5.25777270      -0.16446199      -0.08155629      -0.47790504
Ti      -0.23124131       3.41262195       0.09090126      -0.02587712       0.25036305       0.85056132
Nb       1.49515816       4.73298444       1.79218553       0.13343258       0.18728575      -0.30779189
Ti      -0.27182977       3.44972829       3.50317215      -0.28212017      -0.38361621      -0.62081254
Nb       1.33927968       4.77306889       4.98263277       0.39629364       0.07692701       0.38360408
Ti       3.03617615       0.00287153      -0.09592133       0.26689568      -0.07541983       0.90588886
Ti       4.52104479       1.41319766       2.01449733       0.33976141       0.32904530      -0.53368676
Nb       2.87420560      -0.13161215       3.60953711       0.36846897       0.63768333      -0.59307736
Nb       5.05266766       1.83917670       5.20880645      -0.75515664      -1.16061187      -0.56341243
Nb       3.39910836       3.17070990       0.06782936      -0.70974559       0.56751871       0.64697778
Ti       4.56991709       5.11062510       1.90495122       0.13723224      -0.36047894      -0.33236524
Ti       2.87652841       3.03870856       3.44605612       0.59528536       0.38595277      -0.02064029
Ti       4.61034436       5.11260936       4.96335061       0.56818098      -0.43321040       0.14910562
16
Lattice="6.5600000000000005 0.0 0.0 0.0 6.5600000000000005 0.0 0.0 0.0 6.5600000000000005" Properties=species:S:1:pos:R:3:forces:R:3 group=TiNb_md1400_b1 composition=TiNb energy=-140.70689392089844 pbc="T T T"
Nb       0.01900733      -0.06585641      -0.31802617       0.04897173       0.35165900       0.33159333
Ti       1.98349973       1.31815588       1.48490566      -0.60894787       1.37474895      -0.73581958
Ti      -0.06468660       0.28013280       2.83829343      -0.06786199      -0.35751283       0.90101528
Nb       1.75292948       1.45655840       4.84056733      -0.17353016       0.46353650      -0.25028315
Nb       0.64444387       3.78636101      -0.07188838      -0.57551026      -1.50008368      -0.78383851
Nb       1.68801886       5.18053220       1.80362598       0.06923354      -0.67738384      -0.59898400
Ti       0.19195708       3.42010376       3.39202760      -0.19687071      -0.39813033      -0.26296449
Ti       1.92425835       5.39583915       4.49400647      -0.66237932      -0.81600320       0.10660300
Ti       3.40285544      -0.52367215      -0.18472695       0.01506287       1.25999868       0.48469776
Ti       5.27146237       1.74231665       1.28297106      -0.29542005       0.26380235      -0.19623893
Nb       3.60286081       0.11842798       2.87731100       0.77007186      -0.00623312       0.44429016
Ti       4.83852667       1.66151263       4.83596162       0.81926453      -0.10487419      -0.31820923
Nb       3.46388499       3.18334522      -0.36037717      -0.63344228       0.30681738       0.61628121
Nb       4.99582872       4.50908925       1.33878764       0.45794418       0.83851200       0.74886268
Nb       3.17837479       3.31362961       3.09909502       0.47758818      -0.37709495      -0.02174946
Ti       4.96195988       5.09468466       4.64837992       0.55582553      -0.62175918      -0.46525639
16
Lattice="6.5600000000000005 0.0 0.0 0.0 6.5600000000000005 0.0 0.0 0.0 6.5600000000000005" Properties=species:S:1:pos:R:3:forces:R:3 group=TiNb_md1400_b1 composition=TiNb energy=-140.88702392578125 pbc="T T T"
Nb       0.36750940       0.02494548      -0.28969373      -0.86063117       0.83801305       0.81740767
Ti       2.01627373       1.60103355       1.23395302       0.17990512       0.07281248       0.36353210
Ti       0.25015311      -0.09711231       2.74053919       1.27360857       0.08460850       0.02873433
Nb       1.64130062       1.75573841       4.75700944       0.58700734       0.06069258      -0.84420639
Nb       0.04482235       3.30130483      -0.23999593      -0.07472228      -0.20053276      -0.55161667
Nb       1.99066104       4.82655227       1.19754067      -0.29383665       0.44711936       0.26045415
Ti       0.42847762       3.35329930       2.71539058      -0.14310047       0.17177492       0.88761950
Ti       1.61862151       5.17235232       4.87234907       1.41992974      -1.18915451      -1.02020216
Ti       3.83802870       0.12547309      -0.43404765      -0.71770889       0.06907856       0.35051700
Ti       5.48803052       1.52096725       1.61402779      -1.33941817       0.56873333      -1.19003022
Nb       3.31470347      -0.06589589       2.98127066       0.01313651       0.33868462      -0.00076528
Ti       5.06669346       1.51805691       4.12710138       0.28479972       0.99964720       1.38267183
Nb       3.48839428       3.27544048      -0.22275552       0.65164286      -0.28537807      -0.89749223
Nb       5.01878599       4.88792665       1.35826516       0.61011708       0.25524858      -0.12605715
Nb       3.58872195       3.52651271       3.16682754      -0.32281685      -0.52840829       0.13127942
Ti       5.51006795       5.43283243       4.42456449      -1.26791203      -1.70293927       0.40815419
16
Lattice="6.5600000000000005 0.0 0.0 0.0 6.5600000000000005 0.0 0.0 0.0 6.5600000000000005" Properties=species:S:1:pos:R:3:forces:R:3 group=TiNb_md1400_b1 composition=TiNb energy=-141.01856994628906 pbc="T T T"
Nb       0.47967988       0.13795017      -0.34412216      -0.92733073       0.03547757       0.20183484
Ti       1.99310824       1.74481393       1.24746946      -0.20622678       0.24082962       0.64351964
Ti       0.35995794      -0.02854920       2.59289575       0.12841277      -0.48143163       1.16338682
Nb       1.55918843       1.92883206       4.72095029       0.97193331      -0.89316881      -0.85111481
Nb       0.03314122       3.45121349      -0.25629006       0.46031600      -0.98503077       0.21753767
Nb       2.06162625       4.86866446       1.22912762      -0.43119913      -0.21859927      -0.01152049
Ti       0.22179909       3.41824594       3.16410147       0.25875318       0.09202133      -1.19473755
Ti       1.57046451       4.98496425       4.79129610       1.49579608       0.24135286      -0.54402322
Ti       3.75894083       0.14254122      -0.30145287      -0.38387319      -0.22344723      -0.27742320
Ti       5.63553766       1.61493774       1.68565672      -1.37412071       0.39168438      -0.98584545
Nb       3.34680871       0.00333474       2.75483258       0.40982753       0.27490634       0.82046318
Ti       5.04274207       1.53040019       4.33466027       0.40610406      -0.07387406       0.59234625
Nb       3.59138063       3.00866893      -0.25173254       0.21276975       0.54516625      -0.27515301
Nb       5.10285680       4.90074131       1.13235118       0.14534286       0.39324176       0.95741075
Nb       3.54005912       3.43049142       3.21596555      -0.29471421      -0.31403136      -0.61411291
Ti       5.33328047       4.86757452       4.50603251      -0.87179083       0.97490275       0.15743104
16
Lattice="6.5600000000000005 0.0 0.0 0.0 6.5600000000000005 0.0 0.0 0.0 6.5600000000000005" Properties=species:S:1:pos:R:3:forces:R:3 group=TiNb_md1400_b1 composition=TiNb energy=-140.91217041015625 pbc="T T T"
Nb       0.48278378       0.27140526      -0.39403173      -0.53589594      -0.73521978       0.25998262
Ti       1.90190510       1.94138993       1.40806112      -0.34948963      -0.04889461      -0.01504876
Ti       0.52819190      -0.05555759       2.66065988      -0.72471368       0.00468951       0.80752540
Nb       1.61642263       1.98761406       4.57012531       0.74924219      -1.34982419      -0.06951120
Nb       0.08987843       3.47172007      -0.22591853       1.17777789      -0.81873935      -0.29969567
Nb       2.03999220       4.93106476       1.24490733      -0.22517627      -0.42966926      -0.11450386
Ti       0.05985102       3.49269087       3.30463398       0.31973660      -0.00018433      -1.63445878
Ti       1.87877875       4.79990140       4.59058126       0.29305747       1.07233679       0.49473721
Ti       3.56785860       0.08240440      -0.19259273      -0.15956388      -0.06871763      -0.55847573
Ti       5.41092831       1.81738600       1.58931692      -0.23799652      -0.46913540      -0.22206569
Nb       3.46310353       0.14100441       2.66776491       0.32030055      -0.27582383       0.83429199
Ti       5.11426305       1.46042312       4.57834080       0.40176427      -0.39017847      -0.36317432
Nb       3.71352101       2.82168920      -0.29154448      -0.77063292       0.68883407       0.51313394
Nb       5.19579550       4.89948915       1.05170870      -0.46980920       0.95233065       1.47475553
Nb       3.47767882       3.29640277       3.18381159       0.03742647      -0.27409434      -1.50005591
Ti       4.93728425       4.58835814       4.60589473       0.17397228       2.14229083       0.39256337
16
Lattice="6.88 0.0 0.0 0.0 6.88 0.0 0.0 0.0 6.88" Properties=species:S:1:pos:R:3:forces:R:3 group=ZrNb_rattle05_b0 composition=ZrNb energy=-147.5711669921875 pbc="T T T"
Zr       0.11185622       0.00100881       0.02323304      -0.54254675       0.05845421      -0.15127350
Zr       1.67431395       1.68056046       1.86476469      -0.10877931       0.71023923      -0.33092353
Nb       0.02797375      -0.00793078       3.40101710      -0.22331530      -0.20291747       0.22182085
Nb       1.64760921       1.78119717       5.08512272       0.17493801       0.20806208       0.22812799
Zr      -0.06971727       3.45393534      -0.00465795       0.06724533      -0.07662863       0.14968400
Zr       1.80841598       5.22577319       1.72914748      -0.34932786      -0.74873239       0.42802516
Nb       0.03776827       3.41998586       3.48793303      -0.31098470       0.27650717      -0.16650666
Nb       1.73780734       5.18024481       5.23629145      -0.09000912      -0.42685193      -0.49700242
Zr       3.37206796       0.02105382       0.01334995       0.38165373       0.14860243      -0.12180838
Nb       5.07284102       1.69280925       1.70772461       0.29852661       0.39155999       0.21275781
Zr       3.40875895       0.04902820       3.47762082       0.12874830      -0.29990879       0.01656669
Zr       5.16114821       1.59861517       5.10601434      -0.01621145       0.76764554       0.02684191
Nb       3.36446979       3.44110022       0.10834583       0.24365182      -0.13461787      -0.40209651
Nb       5.18804558       5.18796716       1.73625305      -0.03205695      -0.31843483       0.20731111
Nb       3.39530392       3.43047025       3.42018904       0.28838485       0.12640098       0.25448692
Zr       5.12121606       5.17216475       5.13110057       0.09008330      -0.47937965      -0.07601102
16
Lattice="6.88 0.0 0.0 0.0 6.88 0.0 0.0 0.0 6.88" Properties=species:S:1:pos:R:3:forces:R:3 group=ZrNb_rattle05_b0 composition=ZrNb energy=-147.6476287841797 pbc="T T T"
Zr       0.03707381      -0.04604811       0.01273608       0.00070095       0.04704961       0.17333816
Nb       1.76130139       1.69343680       1.73082441      -0.37640730       0.14705718       0.00860611
Nb       0.06962719      -0.03283553       3.46004210      -0.23372470       0.03930496      -0.16247609
Nb       1.84672167       1.68967879       5.17077199      -0.58180356       0.10484343      -0.15620516
Nb      -0.03638220       3.54885761      -0.03022333       0.28702641      -0.15324007       0.30036086
Nb       1.81272325       5.24952781       1.72332577      -0.59358418      -0.22700506      -0.05206330
Zr       0.03934360       3.39229242       3.45978590       0.00315487       0.19505534      -0.16105556
Zr       1.75595787       5.22413316       5.07484456      -0.26323622      -0.12822118       0.24283248
Zr       3.43064242       0.05093968       0.03752385       0.07832909      -0.36011472       0.06271538
Zr       5.18217841       1.70694438       1.79045776       0.22470829      -0.01695582       0.08277923
Nb       3.36107279      -0.00580789       3.40159392       0.40782201       0.18628454       0.07416039
Zr       5.15797703       1.69394805       5.29447507       0.29116970      -0.04276556      -0.66582251
Zr       3.43448801       3.45717390      -0.04417621      -0.16463661       0.22085667       0.33127311
Nb       5.10954200       5.18556942       1.78867282       0.46990418       0.07923025      -0.04432160
Zr       3.38640597       3.52070722       3.36216412       0.20789681      -0.32926428       0.11668912
Nb       5.13114284       5.13388635       5.16043339       0.24268052       0.23788483      -0.15081058
16
Lattice="6.88 0.0 0.0 0.0 6.88 0.0 0.0 0.0 6.88" Properties=species:S:1:pos:R:3:forces:R:3 group=ZrNb_rattle05_b0 composition=ZrNb energy=-147.5612030029297 pbc="T T T"
Zr      -0.05769465      -0.01751644      -0.02660642       0.65110111       0.56827396       0.28725576
Nb       1.71531797       1.76547210       1.75791667      -0.08655020      -0.36132291       0.05710000
Nb      -0.06067618      -0.05218371       3.49732384       0.63343614       0.64230770      -0.24783376
Nb       1.75431415       1.79678088       5.13753516      -0.10972729      -0.56233472      -0.08216855
Zr       0.01046773       3.51711422      -0.03141745       0.37291157      -0.52280146       0.20228702
Nb       1.74234496       5.19604747       1.68463570      -0.05877040       0.18611971       0.30675489
Zr      -0.04198185       3.44789511       3.45229147       0.60032713      -0.38796005      -0.08822630
Nb       1.75915399       5.15160524       5.10412184      -0.05252275       0.43994629      -0.08499127
Zr       3.45208772      -0.00653055      -0.03075474      -0.42515758       0.41231471       0.03735244
Nb       5.11594073       1.77870979       1.76954397       0.16653949      -0.45490819       0.05094193
Nb       3.43520470       0.01475950       3.37348031      -0.39350122       0.39544410       0.19969067
Nb       5.23094453       1.73204751       5.20050848      -0.20433185      -0.24002536      -0.27998662
Zr       3.46518472       3.42823558       0.00221080      -0.32728863      -0.20868769       0.07559492
Zr       5.16490402       5.15346468       1.80216172      -0.07148582       0.33422124      -0.15173885
Zr       3.45506417       3.46679440       3.50075744      -0.39114505      -0.35623842      -0.16388620
Zr       5.20988879       5.20883156       5.16417906      -0.30383453       0.11565080      -0.11814616
16
Lattice="6.88 0.0 0.0 0.0 6.88 0.0 0.0 0.0 6.88" Properties=species:S:1:pos:R:3:forces:R:3 group=ZrNb_rattle05_b0 composition=ZrNb energy=-147.5382537841797 pbc="T T T"
Zr       0.02173950       0.09784548      -0.06278353       0.08775742      -0.72242802       0.22018489
Nb       1.72719584       1.74822980       1.79055871      -0.24556583       0.15299505       0.02021072
Nb      -0.01256583       0.06387016       3.45539703       0.06085822      -0.64684266      -0.13976456
Zr       1.66861487       1.70361746       5.16440070      -0.10096627       0.43970889      -0.33972311
Nb      -0.05516397       3.43334627       0.00667102       0.05737186       0.41442496      -0.13637301
Zr       1.73528748       5.11524722       1.64873283      -0.46309376      -0.12400176       0.38571346
Nb      -0.01323338       3.44245327       3.32692998       0.02009171       0.39614856       0.35644597
Nb       1.73026127       5.10040718       5.12722287      -0.28753507      -0.17088453      -0.24633579
Zr       3.49000311      -0.01858077       0.04098674      -0.22444487      -0.32513022      -0.29189306
Zr       5.21496339       1.63184277       1.71773247       0.06773502       0.50337213       0.31170547
Zr       3.35266979      -0.00826166       3.40442252       0.19750988      -0.40466860       0.23977372
Zr       5.12069191       1.73102136       5.14436760       0.28283709       0.25216800      -0.36090434
Zr       3.40582512       3.36688303      -0.03592116       0.14020760       0.45653370       0.07074205
Nb       5.11373822       5.15010552       1.72242549       0.46170872      -0.29192770       0.20688361
Nb       3.49550860       3.40563624       3.41411534      -0.14701971       0.39748898       0.01115220
Nb       5.22033657       5.18022265       5.15530726       0.09254776      -0.32695663      -0.30781811
16
Lattice="6.88 0.0 0.0 0.0 6.88 0.0 0.0 0.0 6.88" Properties=species:S:1:pos:R:3:forces:R:3 group=ZrNb_rattle10_b1 composition=ZrNb energy=-146.59225463867188 pbc="T T T"
Nb       0.06112888       0.00606412       0.28205673      -0.29079062      -0.63187343      -0.70762008
Nb       1.66395792       1.52144350       1.69592439      -0.11548856       0.84951282       0.31465065
Nb      -0.04169508      -0.10105505       3.50676809       0.30344826      -0.15119982      -0.43564036
Zr       1.97982010       1.81661066       5.29620243      -1.65698349      -0.95388377      -0.10891329
Nb      -0.03847900       3.39137629      -0.09547552       0.11354552       0.40549058       0.65555418
Nb       1.84551602       5.17542953       1.67387136      -1.03814113      -0.36426631       0.14789334
Nb       0.21216943       3.43565524       3.59778295      -0.83724588       0.00523885      -0.99892944
Zr       1.64937745       5.12452757       5.19298818      -0.37746435       0.74852616       0.37623057
Zr       3.63678991       0.02105818       0.02474007      -0.41375709      -0.38161069       0.41947451
Zr       5.19121495       1.86842929       1.72871546       0.62099016      -0.33113396       0.35077688
Zr       3.41679217      -0.03438665       3.49906073      -0.12395018      -0.23814549      -0.70603114
Zr       5.23100112       1.52037425       5.07473534       1.02967083       0.72165453       0.23378427
Zr       3.51031566       3.47440439      -0.06111507      -0.12566447       0.01455134       0.57059628
Nb       4.98585613       5.06495644       1.68257647       1.43868327       0.20621945       0.46470898
Zr       3.38232688       3.39124421       3.47218862       0.24781677       0.26540622      -0.65028036
Nb       5.03794290       5.13104474       5.10213893       1.22533131      -0.16448663       0.07374487
16
Lattice="6.88 0.0 0.0 0.0 6.88 0.0 0.0 0.0 6.88" Properties=species:S:1:pos:R:3:forces:R:3 group=ZrNb_rattle10_b1 composition=ZrNb energy=-147.33969116210938 pbc="T T T"
Nb      -0.01057267       0.11198421      -0.04025533      -0.10581084      -0.07539986      -0.06818490
Zr       1.63736242       1.69642481       1.68049064       0.28664675       0.32407042      -0.34372255
Zr      -0.09402788      -0.02901003       3.29259013       0.03104010       0.74336302       0.63757265
Nb       1.71111580       1.74694961       5.24550082       0.14455099      -0.28615153       0.02243458
Nb      -0.03607567       3.38891772      -0.15598906       0.24172072       0.03286448       0.81416410
Zr       1.56480699       5.25249453       1.77039044       0.76988816      -0.45568570      -0.73856211
Nb       0.12072807       3.42465042       3.44783743      -0.37053758      -0.33187616      -0.26299614
Zr       1.62407990       5.14510559       5.15174345       0.56709820       0.35545486       0.51274490
Nb       3.57208120      -0.04929642       0.04936268      -0.43850797       0.39633584      -0.18251830
Nb       5.01875572       1.80751881       1.72064687       0.37312478      -0.12988228      -0.33735275
Nb       3.37496443       0.15396756       3.49287648       0.05550925      -0.35999435      -0.01171350
Zr       5.17750976       1.80112885       5.10581126      -0.08796930      -0.50253224       0.35656029
Nb       3.54348882       3.48239077       0.03153755      -0.54459769      -0.17345650       0.03645962
Zr       5.17119709       5.18767793       1.73193497      -0.25696391      -0.23360744      -0.25616488
Zr       3.42153510       3.41550663       3.50261401      -0.18832427       0.23057738      -0.25174019
Zr       5.25660563       5.11012193       5.16875682      -0.47686729       0.46592033       0.07301909
16
Lattice="6.88 0.0 0.0 0.0 6.88 0.0 0.0 0.0 6.88" Properties=species:S:1:pos:R:3:forces:R:3 group=ZrNb_rattle10_b1 composition=ZrNb energy=-146.78671264648438 pbc="T T T"
Nb       0.07224222      -0.06018725       0.05577098      -0.34072798       0.75708771      -0.62409109
Zr       1.85689444       1.71505128       1.65235364      -1.07478201      -0.31145206       0.74264866
Nb      -0.23631233      -0.02167501       3.50908472       0.67747372       0.38898107      -0.15846349
Nb       1.74799070       1.72285571       5.15344626      -0.17883584      -0.29365516      -0.31071195
Zr      -0.13335112       3.52924160      -0.11834255       1.03995359      -0.75925714       0.29469207
Zr       1.68388177       5.15253474       1.74666884       0.11934870       0.08572316       0.20834225
Nb       0.05337231       3.37700212       3.60537094      -0.24550700      -0.22681141      -0.97316110
Zr       1.67055213       5.16466222       4.97835584      -0.05278242       0.08995485       0.44738948
Zr       3.44886472      -0.06435738      -0.04629081       0.21548563       0.09159909      -0.09028096
Nb       4.99611796       1.74479857       1.83942261       1.04439211      -0.47054443       0.06054009
Nb       3.52760844      -0.17200449       3.54509212      -0.22461745       0.74301487      -0.58354902
Zr       5.14064928       1.84076945       5.17239034       0.00938582      -1.05862892      -0.25977010
Zr       3.57294779       3.41493583       0.08473216      -0.91944623       0.23401636      -0.55436867
Zr       5.33251606       5.14400146       1.51257802      -0.65071565       0.23425423       1.48780000
Nb       3.41762321       3.37127184       3.39934715       0.07634485       0.05566089       0.10211539
Nb       5.03552170       5.05262400       4.95881800       0.50503016       0.44005710       0.21086848
16
Lattice="6.88 0.0 0.0 0.0 6.88 0.0 0.0 0.0 6.88" Properties=species:S:1:pos:R:3:forces:R:3 group=ZrNb_rattle10_b1 composition=ZrNb energy=-146.745849609375 pbc="T T T"
Zr       0.12364867      -0.03618399      -0.04009537      -0.47210124       0.71969497       1.61892009
Nb       1.74741909       1.73114449       1.92661383       0.21130235      -0.04037150      -0.69341213
Zr       0.12302535       0.07953401       3.45637116      -1.02673113      -0.71267700      -1.16672564
Zr       1.66648297       1.67442074       5.04673935       0.20904928       0.31039047       0.74483061
Zr      -0.11894449       3.41518454       0.14289662       0.79798776      -0.57072181       0.16062960
Nb       1.74686652       5.07488992       1.89576952       0.34391683       0.03959365      -0.13730139
Nb      -0.09317596       3.39132873       3.47152634      -0.11871795       0.44399977      -0.38225657
Zr       1.53353792       5.25028126       5.24678524       1.11437273      -0.87403780      -0.43138409
Nb       3.46984979       0.07005976       0.03694570      -0.34416714      -0.25007814       0.79591161
Nb       4.96708714       1.77641375       1.75973470       0.32326883      -0.55283201       0.21301910
Nb       3.57159409      -0.10664024       3.50177007      -0.34994227      -0.33533382      -0.79031754
Zr       5.05478814       1.66826088       5.06811381       0.39193884       0.01366347       0.22462153
Zr       3.46489345       3.38418674      -0.10277695      -0.90462971       0.10179752       0.97584444
Nb       5.13321661       4.99947134       1.64957884      -0.33937046       0.71808732       1.13541377
Nb       3.31773971       3.27132259       3.59497651       0.41583642       1.20031583      -0.94031149
Zr       5.12227091       5.22409277       5.41960022      -0.25201339      -0.21149114      -1.32748187
16
Lattice="6.88 0.0 0.0 0.0 6.88 0.0 0.0 0.0 6.88" Properties=species:S:1:pos:R:3:forces:R:3 group=ZrNb_rattle18_b2 composition=ZrNb energy=-143.4380340576172 pbc="T T T"
Zr       0.39784698       0.10218882       0.13692973      -2.14600182       0.07289545      -0.51182783
Nb       1.55730191       1.76849847       1.82168363       0.37270534       1.62779498       0.51636016
Nb       0.02364048       0.09799535       3.55047666      -0.43201894      -0.01316024      -0.18703511
Nb       1.42196809       2.01372495       5.14381580       2.85664392      -1.29272628       0.92106909
Nb      -0.17865410       3.36966212       0.22612369       0.68273264       0.07440108       0.29311034
Zr       1.75412630       5.12824180       1.67674675      -0.36234003      -0.76085752       0.66025603
Zr      -0.31157745       3.48692384       4.02665381       4.28606129      -2.19979334      -7.61003113
Zr       1.49228465       5.24662689       5.17099957       2.07466483       0.09746820       0.24496043
Zr       3.63592461       0.18854547       0.07956372      -0.49363840      -0.26727971      -1.35369503
Zr       4.94307933       1.99320329       1.96832848       1.38268209      -0.79045683      -0.85405469
Zr       3.33257815       0.28915437       3.33582859      -0.04160912      -0.74229932       1.78197563
Nb       5.27072838       1.68764217       5.23863457      -1.85188532      -1.76232958       1.15596068
Nb       3.46019862       3.41292166      -0.07264148      -0.52395928       0.07277599      -0.36095136
Zr       5.11935206       5.29415658       1.77341238       0.84735197       0.05094275      -0.25465167
Nb       3.54674357       3.74642908       3.35823181      -1.82828248      -0.68610483       1.33775806
Nb       5.33161207       4.87710925       5.15710866      -4.82310677       6.51873112       4.22079802
16
Lattice="6.88 0.0 0.0 0.0 6.88 0.0 0.0 0.0 6.88" Properties=species:S:1:pos:R:3:forces:R:3 group=ZrNb_rattle18_b2 composition=ZrNb energy=-144.31478881835938 pbc="T T T"
Nb       0.33846739       0.13298369       0.02239687      -4.05113173      -3.78900194      -3.84471536
Zr       1.54487938       1.50374498       1.27941455       3.96306539       3.04543495       4.60908985
Nb      -0.02617631       0.09667511       3.53066783       0.99968421      -0.57717979       0.08266227
Nb       1.75313744       1.83974795       4.90243420       0.33883744      -1.20090902       1.31901097
Zr      -0.07140492       3.39585205       0.20714520       0.03227812       1.25882161      -1.82960272
Zr       1.76283094       5.22657220       1.56174088      -1.04802465      -0.67726731       1.52734983
Zr      -0.08452078       3.38192147       3.51389879       0.80421162       0.41262999       0.15486264
Nb       2.09075599       5.26086387       5.05225541      -1.65299594      -0.11346494       0.30812082
Nb       3.50088732      -0.28440445       0.06548963       0.59348893       1.41185951      -0.80514163
Zr       5.23846768       1.75104316       1.68249664      -1.28522980      -0.67165744       0.13670912
Nb       3.49304641      -0.14877293       3.16869372      -1.22597694       1.79207575       1.44194233
Zr       5.11431050       1.47652569       5.16669792      -0.73905814       0.49392942       0.49282646
Nb       3.30919246       3.46552535       0.34573173       0.90189201      -0.53816921      -1.63814068
Zr       5.17043822       5.28435321       2.01209037       0.99034679      -0.88339734      -1.58169389
Nb       3.21570737       3.35727828       3.50106697       0.86459279      -0.11358587      -0.95217085
Zr       5.08619650       5.05210884       5.20435835       0.51401973       0.14988169       0.57889152
16
Lattice="6.88 0.0 0.0 0.0 6.88 0.0 0.0 0.0 6.88" Properties=species:S:1:pos:R:3:forces:R:3 group=ZrNb_rattle18_b2 composition=ZrNb energy=-144.04718017578125 pbc="T T T"
Zr      -0.06824276      -0.10432167      -0.00854856       1.04207957       0.77252042       0.31096816
Nb       1.74660371       1.87408229       1.76036203      -0.37399238      -0.47443739      -0.22072066
Nb       0.13901152       0.16010261       3.63556789      -0.97739023      -0.25026694      -0.57114887
Zr       1.86075618       1.60009968       5.22594858      -0.64436924       0.83855951       0.41715550
Zr      -0.02893660       3.53326803      -0.15027277       0.33541965      -0.61299682       0.09937993
Nb       1.58133451       5.09487008       2.05733292       1.34630024       0.83746904      -1.04133868
Zr      -0.03873203       3.49940398       3.21525387      -0.81535172      -1.38122892       2.23011971
Nb       1.94176730       5.16174857       5.36532386      -0.62851369      -0.49977988      -0.94964790
Zr       3.50332851      -0.32612999       0.28176281      -3.22265148      -0.96484268      -2.06603885
Zr       4.71038241       1.35062260       1.48933801       3.92878962       3.56068397       2.13479328
Zr       3.52966377       0.18459088       3.50196796      -0.73329008      -1.41817439       0.87397557
Nb       4.72579352       2.00053983       5.34536082       3.07401967      -2.27783346      -2.03313208
Nb       3.63041446       3.30741514       0.00664622      -2.56814241       2.89070106       1.74806595
Zr       5.14829927       5.09095482       1.79522027       0.28774974      -0.28605032       0.74735522
Nb       3.52792546       3.50514007       3.52196079      -0.58790541       0.31775197      -0.44322944
Nb       5.07318841       5.42366341       5.26913114       0.53724909      -1.05207467      -1.23655677
16
Lattice="6.88 0.0 0.0 0.0 6.88 0.0 0.0 0.0 6.88" Properties=species:S:1:pos:R:3:forces:R:3 group=ZrNb_rattle18_b2 composition=ZrNb energy=-144.26393127441406 pbc="T T T"
Nb      -0.00133208      -0.05600161      -0.05472800       0.59394926       0.22330157       0.91999513
Nb       1.85780629       1.49168544       1.93026899      -1.80563784       0.74936295      -1.12449622
Zr      -0.26617835      -0.11444290       3.48635099       2.33700848       0.90661758      -0.77003479
Nb       1.70862172       1.66748734       5.24838605      -0.26654243      -0.47458684      -0.46811140
Zr       0.06586040       3.50129831      -0.03961187      -0.51301849      -0.80336159       0.51301551
Nb       1.62287849       5.19787508       1.69415335       0.60884559       0.30114228       0.22896497
Zr      -0.02368894       3.54657152       3.51727703       0.54637885      -1.45752907      -0.44474971
Nb       1.57823287       5.14688706       5.01972629       1.23972642       0.70503163       0.25442478
Zr       3.64728615       0.04077731      -0.12434353      -2.67448211      -1.59455490       2.69208026
Nb       5.06261912       2.09686368       1.97785439       1.92524803      -0.40612930      -2.30712271
Zr       3.78608994       0.18966838       3.14555929      -3.00970244      -2.63808560       0.25268114
Zr       4.97507436       1.23536657       5.18128797       2.43931556       4.72842121      -0.00937774
Zr       3.29034453       3.46596366       0.07930483       0.25567675      -0.12877363      -0.04435661
Nb       5.21439191       5.24418163       1.75264027      -0.29079598      -1.07638180      -1.05873525
Nb       3.36197145       3.21360372       3.41626217      -1.04928982       1.63605082       0.67549521
Zr       4.99068586       4.99539936       5.00128650      -0.33668014      -0.67052501       0.69032705
54
Lattice="10.32 0.0 0.0 0.0 10.32 0.0 0.0 0.0 10.32" Properties=species:S:1:pos:R:3:forces:R:3 group=ZrNb_rattle10_b9 composition=ZrNb energy=-495.2356872558594 pbc="T T T"
Zr       0.08813965      -0.08997160       0.29153643      -0.45130458       0.10648599      -2.27297330
Zr       1.73760151       1.60123628       1.71991153       0.29334584       1.22102499       0.11178938
Nb       0.03594797       0.02202682       3.21967632      -0.23136173       0.14176300       1.64231110
Nb       1.86253265       1.79584882       5.23628600      -0.85543215      -0.39339793       0.45723194
Nb       0.15518261       0.12621503       6.82644166       0.06550039      -0.04180600       0.62352747
Nb       1.63059255       1.87278170       8.79678209       0.03142815      -0.49675724      -1.05733776
Nb      -0.02769706       3.44686704       0.05004127       0.35085332       0.53728217      -0.67042881
Nb       1.66343676       5.10434098       1.70837512       0.06513755       0.38672996      -0.18825422
Zr       0.06929362       3.41509007       3.47601300      -0.03294849       0.29209611       0.17529228
Nb       1.56986429       5.10498899       5.32281312       0.62987584      -0.25088114      -0.68295860
Nb      -0.15837636       3.62966300       6.95815528       0.95880914      -1.15347576       0.09072329
Nb       1.72159118       5.30194005       8.63169407      -0.24708030      -0.56652987       0.39790118
Nb      -0.00407421       6.78133667      -0.02710613       0.14677989      -0.06978108      -0.29178947
Zr       1.71300365       8.66245103       1.81993201       0.08130360      -1.50026584      -0.28471497
Zr      -0.03854395       6.95886057       3.57091738      -0.35126042      -1.10361469      -0.85119045
Zr       1.65201578       8.44208663       5.28140919      -0.12057877       1.56270885      -0.50977647
Zr       0.05825761       6.80772294       6.79448731      -1.22169459       0.28284898       1.20807040
Nb       1.69330136       8.48825850       8.55498421      -0.74883550       0.90073210       0.67294812
Zr       3.36251493      -0.18371797       0.09426315       0.64251161       0.63045549      -0.97098053
Nb       5.19017944       1.68090932       1.57001251      -0.33227530       0.10364631       0.60299504
Zr       3.38433963       0.01649795       3.50964384       0.29203063       0.12420242       0.23001480
Nb       5.07353237       1.51382096       5.24205943       0.11210074       1.31252670      -0.33542302
Nb       3.48950699      -0.08283312       6.89836435      -0.89170146       0.98082250       0.52526534
Nb       5.24230725       1.60820761       8.57642481      -0.98626232       0.34437987       0.23558086
Zr       3.45556977       3.43547800      -0.02572236       0.02149710       0.27746242      -0.13308680
Zr       5.22446190       5.30331759       1.76703725      -0.35543606      -0.34284568      -0.12778933
Zr       3.47947340       3.36446539       3.53792861       0.36280209       0.44093856      -0.23375383
Nb       5.28262534       5.10684540       5.19837671      -0.45378372       0.00752145      -0.06896526
Zr       3.39148952       3.55358767       6.85360310       0.09492005      -0.39664879       0.51962721
Nb       5.03031391       5.29759941       8.56087541       0.41586149      -0.03667265       0.28620258
Nb       3.46535499       6.96095099      -0.09917254      -0.23165780      -0.33393696       0.29675418
Nb       5.07261433       8.55124641       1.84661271       0.42854708       0.06995848      -0.35376894
Zr       3.39322175       6.93676729       3.46063947       0.06103632      -1.01160419       0.06229380
Zr       5.14168185       8.51545064       5.26118841       0.35236871       0.03977600      -0.47414163
Zr       3.32479799       7.11968662       6.92997442       0.93426621      -1.61442125       0.14578184
Nb       5.04184914       8.78998738       8.58589453       0.56233466      -0.74700534       0.32336247
Zr       6.99549742      -0.02884042       0.05222567      -0.92770255      -0.24620771      -0.20141038
Zr       8.60380942       1.83823328       1.64792694       0.12412965      -0.16006640       0.64819980
Zr       6.77361328       0.12554813       3.34254158       0.02584171      -0.23646832       0.05478033
Zr       8.65597386       1.56897367       5.12452889       0.20745367       0.73798937       0.06024653
Zr       6.74343349       0.07793991       6.79770431       0.58911395      -0.54404134       0.54524940
Zr       8.48581464       1.72025631       8.62573547       1.26329970      -0.20052391      -0.23969162
Zr       6.87753141       3.35807351       0.13248395      -0.45987126       0.99684381      -0.82467222
Nb       8.66048751       5.03335775       1.57582185       0.14010015       0.84001654       0.46874201
Nb       6.99072129       3.64893356       3.41821099      -0.53469217      -0.73805594       0.35188848
Nb       8.59042087       5.02316519       5.19188755      -0.27890405       0.41771194      -0.28930613
Zr       6.87398481       3.47718223       7.01731870      -0.58092725      -0.09110919      -0.64569867
Nb       8.58144686       5.15624062       8.39688403      -0.06838121       0.57529938       1.21827900
Zr       6.93707057       6.99256853       0.04861416      -0.44926751      -0.65659589      -0.67769313
Zr       8.64450120       8.54011550       1.64922980      -0.32772291      -0.49610683       0.76537400
Nb       6.83557968       6.78294466       3.57556969       0.48774981       0.11360613      -0.26208118
Zr       8.57894241       8.65634957       5.18400253      -0.15398550      -0.14301528       0.21589635
Nb       6.70127760       6.74234266       6.86863194       0.60846210       0.44162884       0.41873372
Nb       8.42081495       8.63455705       8.60939990       0.94360650      -0.31462318      -0.70717555
54
Lattice="10.32 0.0 0.0 0.0 10.32 0.0 0.0 0.0 10.32" Properties=species:S:1:pos:R:3:forces:R:3 group=ZrNb_rattle10_b9 composition=ZrNb energy=-495.859619140625 pbc="T T T"
Nb      -0.05957758      -0.06590651       0.01792726       0.57410312       0.38017908      -0.08617237
Zr       1.83646851       1.80685827       1.93935383       0.29936138      -1.07989299      -0.94154626
Zr      -0.02583956      -0.08661131       3.47029532       0.04636562       0.27024055      -0.44175872
Nb       1.70274746       1.73012782       4.99940755       0.23261689      -0.06390546       0.80127537
Zr      -0.07109485       0.00785977       6.91778308       0.73373908       0.16683553       0.19756863
Nb       1.78241212       1.74877519       8.64748977      -0.04365481      -0.47142607      -0.12615535
Zr      -0.01717681       3.26364835       0.08404963      -0.05073106       0.07215126      -0.61556053
Zr       1.72533101       5.07691231       1.72381393       0.33648774       0.34418121      -0.02798593
Zr      -0.05057578       3.36320545       3.38064981      -0.11425328       0.03324679       0.69565248
Nb       1.63148073       5.24208690       5.23794890       0.09147526      -0.72635579      -0.28969303
Zr      -0.08371728       3.54927763       6.85205443       0.36489418      -0.75071305       0.15572108
Nb       1.80090746       5.02578685       8.56935411      -0.96420920       0.24890408       0.52690887
Nb      -0.08948032       6.79168282       0.11447852       0.67959440       0.31698278      -0.55806893
Nb       1.56244268       8.64912071       1.66465850       0.72766924       0.09696802      -0.36407962
Zr       0.12835904       6.88424782       3.47220017      -0.46258718       0.08203976      -0.34076440
Nb       1.69172913       8.52989425       5.09591252      -0.08429390       0.41982269       0.82914007
Nb      -0.07774569       6.70109800       6.83582425       0.54754603       0.52562946       0.51142001
Nb       1.62145880       8.47090070       8.53296496       0.22052512       0.05775712       0.33044359
Nb       3.47622253      -0.14247617      -0.06426849      -0.32581285       0.08989379      -0.11574109
Zr       5.27900939       1.65128281       1.76000359      -1.05767059      -0.62696010      -0.35644034
Nb       3.55613582      -0.08682272       3.53450876      -0.80952764       0.30789033      -0.79852730
Zr       5.16139062       1.69057543       5.27196424      -0.36513782       0.65424275      -0.11601958
Zr       3.57245296      -0.02474354       6.78359890      -1.77529263       0.16047835       1.11074328
Nb       5.11156719       1.65510075       8.56351994       0.04363257      -0.00403592       0.21448304
Zr       3.58082557       3.47944351      -0.03820769      -0.51502037      -0.62292033       0.01263881
Nb       5.24536159       5.09241437       1.67785338      -0.09347399       0.68535054       0.33892107
Nb       3.51072957       3.45568211       3.55908124      -0.47983325       0.00774045      -0.09877466
Zr       5.10010132       5.27090490       4.95469965       0.33569396      -0.75505483       0.38130739
Nb       3.27317305       3.44694345       6.81850812       0.02767055      -0.63126159      -0.05378124
Zr       5.06269577       5.18101838       8.48978480       0.79798752      -0.59921682       0.60265112
Zr       3.58341515       6.83835553       0.09850796      -0.68758518       0.62568808      -0.22243114
Nb       5.09213922       8.61788141       1.66408328       0.60347402      -0.02184045       0.24057850
Zr       3.39320196       6.95779371       3.60057584      -0.16575487      -0.27689701      -1.43202007
Zr       4.91101918       8.56752282       5.19750313       1.42767477      -0.46752349      -0.26465568
Zr       3.43931846       6.51860235       6.97348762      -0.95148379       1.76514101      -0.32013947
Nb       5.24362869       8.53936579       8.41479207      -0.34737867       0.14234364       1.00085270
Nb       6.83371932      -0.00950827       0.06846197      -0.07266745      -0.21515855      -0.25314647
Nb       8.52780962       1.67527463       1.73837633       0.09618443      -0.60811162      -0.09602527
Nb       6.72679278       0.09462170       3.60881437       0.73086488      -1.18627155      -0.84160721
Nb       8.60363671       1.56779202       5.11515692      -0.01939186       0.52297843       0.10865073
Zr       6.82359708      -0.02268352       6.85432934       0.58351183       0.03588617       0.46327293
Nb       8.49599171       1.65438408       8.65953374       0.16942164      -0.04463573       0.04798155
Zr       6.79909225       3.37649974       0.01876606       0.39664942      -0.05948167      -0.26504028
Zr       8.58243452       5.22060188       1.85498582      -0.40861881       0.00117907      -0.50507271
Zr       6.70071456       3.25641511       3.41155214       1.01824355       0.73753893       0.36986476
Nb       8.68907190       5.15179401       5.04850774      -0.29463002      -0.11233990      -0.07584509
Zr       6.99441558       3.58697519       6.82636531      -0.25816187      -0.92411244      -0.10170305
Zr       8.44358789       5.20551121       8.71133889       0.91578895      -0.21936154       0.29726890
Nb       6.87499043       6.93747410      -0.09946301      -0.42458019       0.18468863       0.90580165
Nb       8.62122454       8.65499803       1.52021150      -0.67473251      -0.11664060       0.84134436
Nb       6.90029911       6.77687125       3.43047711      -0.13051674       0.91871065      -0.55435437
Zr       8.65430629       8.53385119       5.09426712      -0.46736366      -0.05492544      -0.06053361
Zr       6.99053386       6.72457952       6.83437646      -0.17471363       0.72342849      -0.32090464
Zr       8.59186930       8.57974884       8.74355366       0.21790254       0.06092525      -0.33994257
54
Lattice="10.32 0.0 0.0 0.0 10.32 0.0 0.0 0.0 10.32" Properties=species:S:1:pos:R:3:forces:R:3 group=ZrNb_rattle10_b9 composition=ZrNb energy=-494.3957214355469 pbc="T T T"
Zr       0.06232661      -0.09817930      -0.02422258      -0.29972056       0.53983629       0.01722567
Zr       1.91511426       1.86141824       1.85320318      -0.81619167      -0.32050765      -0.45437106
Zr      -0.01889516       0.08921893       3.50457910       0.50832927      -0.11332174      -0.23940490
Nb       1.70042885       1.80825752       5.03557817       0.04661290       0.14799720       1.16949010
Nb      -0.20578282      -0.09195685       6.80989183       1.35879970       0.92596471       0.62368965
Zr       1.64208597       1.83424260       8.58335628       0.15150437      -1.24123824      -1.04125190
Nb       0.05982249       3.25145973      -0.09122794      -0.70484358       1.54982221       0.42337573
Nb       1.83651193       5.17190090       1.90068318      -1.01537204       0.01841766      -0.80772024
Nb      -0.16490364       3.46962490       3.25384741       0.81665379       0.70709270       1.08706248
Nb       1.69086855       5.29203611       5.04870602      -0.05828800      -2.09264183       0.92809951
Nb       0.00754316       3.39545419       6.94902172      -0.25112820       0.41575828      -0.77815849
Zr       1.80342574       5.25225244       8.58828689      -1.72951925      -0.86391723      -0.19872135
Zr       0.00875075       6.96044568      -0.15621765      -0.46332496      -0.98675364       1.11289048
Nb       1.78047931       8.66918350       1.70863102      -0.25295028      -0.24357817       0.46370828
Zr       0.07279596       6.79112305       3.51608942      -0.82590234       0.21176744      -1.36390924
Nb       1.61618513       8.48759524       5.17565261       0.86694622       1.33899629       0.09839505
Zr       0.00680265       6.86442788       6.64049142      -0.46769500      -0.50187337       1.35370898
Zr       1.71934373       8.44390383       8.63269971       0.18931675       1.48196459      -0.75624478
Zr       3.49162747       0.13809445      -0.05468922       0.30217934      -0.58840746       0.08639853
Nb       5.24695338       1.79907755       1.54519332       0.35659465       0.05163658       0.14132762
Zr       3.47278737       0.02011541       3.46974102      -0.13384843      -0.01535353       0.40723085
Nb       5.19739674       1.68365273       5.04738952      -0.85006285       0.49090335       0.45875511
Nb       3.61027851      -0.07726847       6.99890154      -0.91544396       0.46064484      -0.73159218
Nb       5.04759009       1.74521330       8.56226392       0.86962867       0.08232296       0.30586886
Zr       3.24142643       3.58788621      -0.16508844       1.35460985      -0.33538178       1.09057188
Nb       5.26038741       5.00586297       1.74593867       0.11297444       0.35539123      -0.31645614
Zr       3.53275222       3.55798313       3.35439162       0.26008764      -0.45205933       0.99920273
Nb       5.12605113       5.11104289       5.22999731       0.16979252      -0.36958021      -0.51158404
Nb       3.48361876       3.44778704       7.12139117      -0.17820705      -0.42688814      -1.88776398
Nb       5.04696966       5.27869303       8.53197440       1.04924035      -0.89971769       1.17548561
Zr       3.34600245       6.83568498       0.09464201       0.87653279       0.21543205       0.38422439
Zr       5.03300637       8.41200170       1.82964907       0.24767491       0.59934455      -0.64740551
Zr       3.41142053       6.77866620       3.68211681       0.40889251       0.48096207      -0.72931206
Zr       5.24105249       8.52665950       5.22154600      -0.65399611       0.21576783      -0.13058588
Zr       3.39051367       6.70545720       7.04258981       0.19152340       1.08690226      -1.34008670
Nb       5.30381580       8.62661145       8.51118646      -0.56204820       0.09565497       0.88412148
Nb       6.89684927      -0.09725430       0.03804583      -0.29160297       0.81471801      -0.47651047
Zr       8.66121537       1.97608080       1.67005387      -0.68953347      -1.15345478      -0.36730105
Zr       6.86359428      -0.02600974       3.51652634      -0.26484907       0.31383690      -0.95505518
Zr       8.38505682       1.71967671       5.14331925       1.16843987       0.79656327       0.21467489
Zr       6.83097784       0.00205035       6.87369114      -0.04466867       0.43670449       0.83061105
Nb       8.70743642       1.72728091       8.56743773      -0.62927854       0.05740371       0.14132947
Nb       7.04714856       3.50353665      -0.02472746      -0.72122037      -0.16288489      -0.63610131
Nb       8.40236389       5.15404705       1.74686723       0.88258886       0.04992466      -0.00026758
Nb       6.89533931       3.46233164       3.44822432      -0.40172032       0.48069423      -0.05060153
Nb       8.64365250       5.14197679       5.21953414      -0.48431033      -0.40947369      -0.49353823
Zr       6.73844491       3.47087257       6.83085127       0.34872860      -0.02164434       0.63572562
Nb       8.44953072       5.31620227       8.58346145       0.77778780      -1.06854904      -0.15583722
Zr       7.00035430       6.88254369       0.00840718      -0.92317271      -0.23965538      -0.19587076
Zr       8.51569815       8.64550648       1.65136571       0.54362732      -0.09089178       0.48037136
Nb       6.80948978       6.96271077       3.32778855       0.45683184      -1.09970093       0.76814532
Zr       8.71116011       8.69811168       5.25304860      -0.95586246      -0.93904001      -0.69114661
Zr       6.64798909       6.79781810       6.87896204       1.28853810       0.00559545      -0.22920825
Nb       8.55220179       8.61284326       8.56429735      -0.01967627       0.20849308      -0.09568443
54
Lattice="10.32 0.0 0.0 0.0 10.32 0.0 0.0 0.0 10.32" Properties=species:S:1:pos:R:3:forces:R:3 group=ZrNb_rattle10_b9 composition=ZrNb energy=-494.26678466796875 pbc="T T T"
Nb       0.07657273      -0.04763726      -0.14076144      -0.55240989       0.33455551       0.75477928
Nb       1.76648859       1.54971313       1.82679107      -0.79065174       0.81012082      -1.47967935
Nb       0.15880987      -0.02371293       3.51872150      -1.45781887      -0.26740667      -0.80900061
Nb       1.69122092       1.68055056       5.19157381      -0.23490524       0.39344066       0.39189944
Nb      -0.15276411      -0.07394179       6.76552315       0.19521835       0.34131119       0.68797344
Nb       1.74533628       1.72731874       8.43963322       0.20451003      -0.47433293       0.42483434
Zr       0.12765698       3.42377970      -0.07575632      -0.36942595      -0.50057530       0.59683883
Zr       1.75172766       5.15028810       1.96307977      -0.26418105       0.44658160      -0.53631800
Nb       0.12359306       3.32911629       3.45593805      -0.12880635      -0.02724373      -0.26077268
Nb       1.66696428       5.22791195       5.14024377       0.84558672      -0.05074501      -0.23043510
Zr       0.01043555       3.39939036       6.81267782       0.09533858      -0.32368109       0.28101626
Zr       1.68289303       4.99743365       8.53352331       0.39427757       0.55540740       0.11987802
Nb       0.25332446       6.94152042      -0.10940619      -1.13879585      -0.33809003       1.17604351
Nb       1.85072043       8.55363194       1.68111556      -0.49523962      -0.17984107      -0.20719491
Nb      -0.13029081       6.97856407       3.57045106       0.80206650       0.11662140      -0.76042974
Zr       1.63982828       8.69449401       5.20050516      -0.06635231      -0.90195215      -0.46910608
Zr       0.07733355       6.82807462       6.89610078      -0.39247125      -0.00160086       0.23876864
Zr       1.59655497       8.56974414       8.57715788       0.37510204       0.81043327       0.28207153
Nb       3.46625692       0.01493830      -0.09195787      -0.68038893       0.49848810       0.29361504
Zr       5.24980068       1.66587861       1.69883685      -0.93323207       0.52696663      -0.41928488
Zr       3.16621474       0.11578269       3.41556932       1.63146245      -1.08571255      -0.10403240
Zr       5.10667899       1.84064050       5.27325539       0.39128411      -0.46032366       0.46351799
Zr       3.46656106      -0.04546097       6.81093463      -0.28308085       1.19761181       0.81229889
Nb       5.27039020       1.97548500       8.63592384      -1.05059445      -0.37269914      -0.31857663
Nb       3.30942985       3.56252472      -0.01652651       0.13952428      -1.23666728       0.28059724
Zr       5.13769800       5.23517293       1.63496928      -0.15346453      -0.56969070       1.13304770
Zr       3.46772306       3.30276067       3.60529221      -0.30066139       0.92062616      -0.40040281
Nb       5.17823018       5.21900578       5.27997504      -0.22445711      -0.10374196      -0.24413326
Nb       3.45876538       3.55004195       6.83769075       0.02682364      -0.16262951       0.23507649
Zr       5.21613375       5.09820978       8.90540583      -0.44408920      -0.11984172      -2.16157818
Nb       3.54309626       6.81580777      -0.15339805      -1.31734884       0.36587137       1.24529529
Nb       5.18541355       8.56460558       1.54899896      -0.65281069       0.34743768       0.85059416
Nb       3.61273150       6.88154063       3.32859915      -0.49013296       0.24332577       0.40578383
Zr       4.96040826       8.63424086       5.19550669       0.93336356      -0.25022569      -0.85945439
Zr       3.51504513       6.98683639       7.04827203      -0.28749198      -1.28952670      -0.93271923
Zr       4.99057806       8.57018178       8.66596967       0.63139641       0.37719548       0.02588558
Zr       6.66732778       0.12215255      -0.07334030       1.62728369      -0.42147839       0.38469622
Nb       8.72252142       1.89376864       1.65718744       0.37864354      -0.88180625       0.06153080
Zr       6.88668322       0.07020176       3.40594201       0.52934396      -0.89862096       0.12069032
Zr       8.67618652       1.70135313       5.14678964      -0.14380217      -0.38387024      -0.04571259
Zr       6.94618769      -0.11836584       7.13254129      -0.25962561       0.74610573      -0.67590058
Nb       8.55810669       1.78602847       8.51596592       0.56697363      -0.37930676       0.36528885
Zr       7.01346368       3.58421256      -0.09250377       0.32818395      -1.08683646       0.99688327
Nb       8.74562978       5.10382180       1.75881845       0.28615308       0.35250181      -0.08343606
Zr       6.84997825       3.29263034       3.49049192       0.50627869       1.06471598      -0.18917631
Zr       8.83289637       5.13336017       5.17979941      -0.79222608      -0.36280614      -0.37749517
Nb       6.91944501       3.45084822       6.91587160      -0.04435644       0.31016141      -0.04651057
Nb       8.55123785       5.13691259       8.71256210       0.74466133       0.55727446      -0.39818510
Zr       6.74950660       6.89716999       0.02265437       1.69074595       0.53185403       0.05261935
Nb       8.53238833       8.41399336       1.86879832       1.22460723       1.17246652      -1.17458570
Zr       7.06912301       6.90171490       3.42152179      -1.15856385      -0.43753988       0.29232767
Nb       8.43765348       8.38029147       5.47207503       1.40166843       1.90786266      -2.02127099
Zr       7.00148164       6.92794222       6.80778439      -1.31710744      -1.49501383       1.30955851
Nb       8.60156769       8.53302061       8.61592054       0.47399423       0.13487010       0.92198014
16
Lattice="6.985056999115267 0.0 0.0 0.0 6.985056999115267 0.0 0.0 0.0 6.985056999115267" Properties=species:S:1:pos:R:3:forces:R:3 group=ZrNb_strain_vol_b0 composition=ZrNb energy=-147.62088012695312 pbc="T T T"
Nb       0.00696814       0.00394572      -0.01765372      -0.10684601      -0.29653174      -0.01054034
Zr       1.71177562       1.76809985       1.72737867       0.19549069      -0.23987956      -0.26820552
Zr       0.02778994       0.04197147       3.44552065      -0.11756386      -0.43331921       0.18740523
Zr       1.75136344       1.68012180       5.24062193      -0.02127612      -0.04337925       0.24416578
Nb      -0.01503301       3.48733360      -0.01274491      -0.05467362       0.28593934      -0.04478776
Nb       1.73220642       5.27007136       1.74984643       0.03486140       0.21863185      -0.36489353
Zr      -0.00985889       3.47814270       3.47387209       0.05680364       0.34265524       0.12142965
Nb       1.74024088       5.23784603       5.17801261      -0.02107139       0.24244639       0.39633077
Nb       3.47272938      -0.01326339       0.00307577       0.08020293      -0.25384125       0.04523082
Zr       5.26196464       1.73686713       1.80867155      -0.22713888      -0.17985007      -0.58750260
Nb       3.48937591       0.01520570       3.49668879       0.02387181      -0.27875412      -0.06401646
Nb       5.16857632       1.77923648       5.21947015       0.11628126      -0.31929731       0.36728618
Zr       3.41109190       3.50005490      -0.01218411       0.21867724       0.28967023       0.06224523
Nb       5.28670584       5.24591707       1.77045158      -0.13006386       0.22450608      -0.41857779
Zr       3.50117062       3.54550085       3.47735141      -0.09474059       0.14512220      -0.02859811
Zr       5.22611360       5.24919970       5.22402032       0.04718548       0.29588127       0.36302847
16
Lattice="6.88 0.0 0.0 0.0 6.88 0.0 0.0 -0.29556647949983433 6.88" Properties=species:S:1:pos:R:3:forces:R:3 group=ZrNb_strain_shear_b0 composition=ZrNb energy=-147.7632293701172 pbc="T T T"
Nb       0.00784520       0.00936531       0.00420017      -0.11661309      -0.01106538      -0.03478577
Zr       1.71089663       1.62853054       1.71937302       0.25058770      -0.18499063      -0.03791901
Nb       0.02348010      -0.20220583       3.47911174      -0.22103915       0.24574327      -0.10113378
Nb       1.74189199       1.49623704       5.12885553       0.24080861      -0.25920227       0.10898596
Zr       0.01159592       3.46849833      -0.00004082      -0.07356951      -0.11413690      -0.01483953
Zr       1.68926672       5.10802112       1.70154741       0.44172722       0.23308107       0.12869510
Zr       0.01920788       3.31957855       3.45501306      -0.09402651      -0.17133641      -0.09449407
Zr       1.70897082       4.93588461       5.18367001       0.37562776       0.32517231      -0.05756985
Nb       3.43621683      -0.01707889       0.00749419       0.04472116       0.10270934      -0.03030394
Zr       5.15036877       1.64649586       1.66265774      -0.22069874      -0.33366442       0.21143235
Nb       3.38662955      -0.10601940       3.44009761       0.25127667      -0.10167416       0.01490206
Zr       5.18728306       1.53438715       5.16422283      -0.34761229      -0.43384832      -0.09854609
Nb       3.42555996       3.45432347       0.00933219       0.04474983      -0.08844747       0.00234578
Nb       5.15148565       5.06566386       1.73136694      -0.34146833       0.39259478       0.01864980
Nb       3.44845648       3.28631745       3.44518301      -0.04074718       0.01837969      -0.08796881
Zr       5.10889890       4.93758808       5.14375960      -0.19372410       0.38068542       0.07254987
16
Lattice="7.26031969784041 0.0 0.0 0.0 7.26031969784041 0.0 0.0 0.0 7.26031969784041" Properties=species:S:1:pos:R:3:forces:R:3 group=ZrNb_strain_vol_b0 composition=ZrNb energy=-145.24305725097656 pbc="T T T"
Zr       0.00081642      -0.01312920       0.04517431       0.12425521       0.13558640      -0.17105988
Nb       1.81672164       1.80795660       1.81507819       0.11046603      -0.32652259       0.13660619
Nb      -0.06269376       0.00683732       3.68882516       0.24075398       0.08766948       0.00512333
Nb       1.82649460       1.78790207       5.43271587       0.10685161      -0.36432964      -0.09637318
Zr      -0.03799110       3.62423133       0.01671938       0.24162151      -0.10391602      -0.17160143
Zr       1.87051966       5.42339768       1.77225437       0.01077746       0.35166949       0.22810854
Zr       0.00315930       3.62910865       3.65781597       0.20035249      -0.11066799       0.09878696
Nb       1.86947022       5.49568200       5.48192911       0.04697424       0.33065069      -0.17968360
Nb       3.66134486      -0.03908986       0.02483755      -0.14896673       0.18675518      -0.13282183
Nb       5.45591683       1.84620363       1.77384777      -0.11228991      -0.36260083       0.17432626
Nb       3.62824956       0.11566599       3.60359014      -0.08314520      -0.07361419       0.08364862
Zr       5.41471024       1.81525792       5.47180693      -0.04068492      -0.35042503      -0.09621588
Zr       3.60370688       3.61191549      -0.04415258      -0.07572335      -0.07151838      -0.05929357
Zr       5.48601454       5.39258969       1.82836610      -0.17969753       0.39562216       0.10522409
Zr       3.70489304       3.63086558       3.61133622      -0.26435593      -0.12058322       0.13973093
Nb       5.49362947       5.43733886       5.41682133      -0.17718884       0.39622432      -0.06450541
16
Lattice="6.88 0.0 0.0 0.0 6.88 0.0 0.0 -0.04753326220156238 6.88" Properties=species:S:1:pos:R:3:forces:R:3 group=ZrNb_strain_shear_b0 composition=ZrNb energy=-147.75625610351562 pbc="T T T"
Zr       0.01548107       0.03318237      -0.00278323      -0.24868062      -0.24467631      -0.27286720
Zr       1.63897975       1.66818908       1.73682864       0.54918385       0.17846808       0.12260675
Nb      -0.06652960      -0.03339028       3.44642205      -0.02224721      -0.07665156       0.25361127
Zr       1.74396634       1.65599008       5.12421738       0.07665879       0.25378191      -0.13046269
Nb       0.02428908       3.40827857      -0.02234097      -0.17338420       0.25409549      -0.17630145
Zr       1.68774410       5.14699024       1.75324445       0.26235524      -0.05182207      -0.00287986
Zr      -0.01234641       3.41608634       3.37622011      -0.11770612       0.12178773       0.48489293
Nb       1.68831452       5.13062464       5.18469890       0.21491691      -0.22521338      -0.19764276
Zr       3.45339685       0.00593859      -0.03451449       0.09500331      -0.14155136       0.01044058
Nb       5.21136763       1.72355711       1.70484137      -0.46499613       0.09550143       0.12718585
Nb       3.44908434      -0.04052581       3.41600043       0.09249195      -0.01620041       0.16882262
Zr       5.12052634       1.74011909       5.15190650      -0.09117179       0.08514139      -0.16521187
Nb       3.40683339       3.43033945       0.06165081       0.16542824       0.12962647      -0.24201576
Zr       5.17651337       5.15329716       1.73391549      -0.26987147      -0.14215751      -0.07286726
Nb       3.42351471       3.47297399       3.43199724       0.10952762      -0.04869970       0.19444461
Nb       5.15937081       5.12915219       5.16468489      -0.17750858      -0.17143026      -0.10175578
16
Lattice="6.594566984452087 0.0 0.0 0.0 6.594566984452087 0.0 0.0 0.0 6.594566984452087" Properties=species:S:1:pos:R:3:forces:R:3 group=ZrNb_strain_vol_b0 composition=ZrNb energy=-145.04489135742188 pbc="T T T"
Zr       0.00520182       0.01699875       0.00559942      -0.89835829      -0.04788872       0.11802702
Zr       1.67410493       1.60634802       1.58070966       0.31713343       0.08196649       0.45998001
Nb       0.02307716      -0.03534720       3.35402867      -0.69903386       0.18570548      -0.45794100
Zr       1.58631583       1.59217629       4.97378488       0.55929750       0.51197994      -0.23519953
Zr      -0.00694941       3.32280265       0.02087460      -0.63235116      -0.05440974      -0.28740403
Zr       1.59806354       4.93540600       1.61513682       0.39335775       0.11830527       0.17083377
Zr       0.02228230       3.27838290       3.27899497      -0.44853306       0.02484977       0.16918299
Zr       1.63154608       4.98128863       4.93871399       0.37394679      -0.46297598       0.06354041
Nb       3.30266441      -0.02559625      -0.02496322       0.67954636       0.13552153       0.12533920
Nb       5.00149233       1.70733442       1.69104069      -0.53323060      -0.33480519      -0.14342539
Zr       3.28371693       0.01334320       3.31482874       0.65371251       0.14343414      -0.25854167
Nb       4.92457281       1.66697252       4.92919356      -0.32831112       0.09711304       0.16749209
Nb       3.26238155       3.30253885       0.04258131       0.69200909      -0.06417570      -0.37460896
Nb       4.90952529       4.96432895       1.61552282      -0.13477255       0.14702673       0.13612568
Nb       3.29637923       3.36358517       3.28245590       0.35621968      -0.35075921       0.14145881
Nb       4.96042544       4.95900416       4.90508930      -0.35063249      -0.13088755       0.20514093
16
Lattice="6.88 0.0 0.0 0.0 6.88 0.0 -0.17995389487669325 0.0 6.88" Properties=species:S:1:pos:R:3:forces:R:3 group=ZrNb_strain_shear_b0 composition=ZrNb energy=-147.74542236328125 pbc="T T T"
Nb       0.02307721       0.03490683       0.01927251      -0.03185876       0.01636643      -0.03518731
Zr       1.74187054       1.73530905       1.74401875      -0.04440790      -0.31496733      -0.40828717
Zr      -0.11084643      -0.05098842       3.43692824       0.05287863       0.31255823      -0.01216908
Nb       1.62113110       1.70201481       5.10046640       0.07817699      -0.17318806       0.52444744
Zr       0.03111675       3.47989633       0.02411187      -0.11735480      -0.15085599      -0.02380694
Zr       1.71154322       5.19858837       1.75037550       0.14321738       0.24897151      -0.36972600
Zr      -0.07588081       3.46220767       3.46015126      -0.15867287      -0.19065930      -0.03756323
Nb       1.52000829       5.14542412       5.18250595       0.51889586       0.29304221       0.31235147
Nb       3.44112218       0.01290983      -0.01313760      -0.05679572      -0.01880284       0.06353000
Nb       5.08964636       1.72472183       1.70991614      -0.05994856      -0.21747217      -0.23573878
Nb       3.33474032       0.02154110       3.45843636       0.01828375      -0.09237865      -0.02098259
Zr       4.97409733       1.67949467       5.16192723      -0.01928732       0.04654452       0.28737339
Nb       3.45942895       3.46427624       0.06621473       0.02550703       0.01656860      -0.27069652
Nb       5.09590345       5.20142348       1.75803944      -0.18734300       0.15289710      -0.44353491
Zr       3.34124811       3.45271117       3.41178064       0.14990062       0.08558643       0.28816456
Zr       5.01270918       5.21936210       5.16360608      -0.31119213      -0.01421079       0.38182554
16
Lattice="6.569526122358493 0.0 0.0 0.0 6.569526122358493 0.0 0.0 0.0 6.569526122358493" Properties=species:S:1:pos:R:3:forces:R:3 group=ZrNb_strain_vol_b0 composition=ZrNb energy=-144.83274841308594 pbc="T T T"
Nb       0.02645272       0.02514831       0.01253668      -0.35145918       0.44150797      -0.09248271
Nb       1.61528373       1.67068732       1.63906613       0.09738921      -0.15723720       0.16426992
Zr      -0.00015840       0.01049482       3.27107258      -0.15861772       0.41129720       0.10386786
Nb       1.66250804       1.65880148       4.89403455       0.09501800      -0.20994735       0.03666678
Zr      -0.04574143       3.31253509      -0.05591944       0.03950876      -0.54053611       0.49208552
Zr       1.60582138       4.92150052       1.66594112       0.06333089      -0.00394303       0.07236327
Zr      -0.02693566       3.25543445       3.33364631      -0.04474103      -0.15346038      -0.46715611
Zr       1.59104695       4.97656459       4.93815347       0.51337039      -0.03289480      -0.10807395
Zr       3.26017626      -0.00779076       0.02563397       0.26250458       0.35821110      -0.32862321
Nb       4.88648114       1.63652954       1.64947630       0.01968008       0.02545092       0.07975821
Nb       3.29164461      -0.02821294       3.30970980       0.06315482       0.49802399       0.18262582
Nb       4.95188931       1.67404056       4.90864906      -0.38144928      -0.51223040       0.06127811
Zr       3.24841946       3.23678040       0.01448647       0.16600567      -0.06244814      -0.19678712
Zr       4.86581778       4.96136265       1.66772547       0.11197425      -0.17075041       0.04600191
Nb       3.25764786       3.28311558       3.31879355       0.18376316      -0.25194851       0.06516469
Nb       4.99233233       4.92249846       4.94769308      -0.67943311       0.36090523      -0.11095852
16
Lattice="6.88 0.0 0.0 0.0 6.88 0.0 0.0 -0.20466184074214774 6.88" Properties=species:S:1:pos:R:3:forces:R:3 group=ZrNb_strain_shear_b0 composition=ZrNb energy=-147.69638061523438 pbc="T T T"
Nb       0.00370538      -0.01012778       0.01015801       0.04645634      -0.25713530      -0.25785139
Zr       1.74861036       1.68834296       1.77081779      -0.53698784      -0.15482861      -0.18896183
Nb       0.05835575      -0.14364063       3.43407865      -0.22254756      -0.15163189       0.24271767
Zr       1.65330668       1.57280129       5.17395912      -0.06236684      -0.07306930       0.05948283
Nb      -0.00200418       3.41699735       0.02617866      -0.05979241       0.28850567      -0.21254328
Zr       1.74737284       5.07585074       1.73036456      -0.38663664       0.06650612      -0.03081460
Nb      -0.02610690       3.31533380       3.44940807      -0.03629693       0.28856775       0.16998923
Nb       1.68209668       4.98433856       5.18193822      -0.20317522       0.01099965      -0.03002757
Zr       3.43462359      -0.00399524       0.03278510      -0.08450818      -0.27476069      -0.51648432
Zr       5.11743897       1.63535234       1.68816493       0.53735530       0.10709882       0.15189072
Nb       3.41891777      -0.11196583       3.44105318       0.10472503      -0.24915490       0.36616728
Zr       5.18140280       1.56250041       5.16466321       0.15097159      -0.11300719      -0.07811708
Nb       3.42494058       3.42701495      -0.00802036       0.07347517       0.24081761      -0.26769254
Zr       5.16399391       5.14762096       1.69121983       0.29289287      -0.21531402       0.10574581
Zr       3.41795085       3.29358215       3.41787492       0.16640617       0.41307902       0.44155890
Nb       5.17480408       4.97877018       5.13563614       0.22002886       0.07332715       0.04494034
16
Lattice="6.88 0.0 0.0 0.0 6.88 0.0 0.0 0.0 6.88" Properties=species:S:1:pos:R:3:forces:R:3 group=ZrNb_md600_b0 composition=ZrNb energy=-147.19229125976562 pbc="T T T"
Zr      -0.19555786      -0.10910759       0.04637891       0.50309026      -0.24285389      -0.33750397
Nb       1.59457320       1.61564870       1.77998612       0.07897481      -0.28475499      -0.40415487
Nb      -0.18811326      -0.21730397       3.36545839       0.22782521       0.19838089       0.05453168
Zr       1.75495051       1.57008942       5.01680103      -0.02726109      -0.33178937       0.23621751
Zr      -0.28063466       3.31095849      -0.11829778       0.91079676       0.45178339       0.12680241
Nb       1.50645300       4.93456843       1.57112211       0.32462460       0.43315893       0.51092410
Zr      -0.03983324       3.18946893       3.43988992      -0.26878864       0.63282400      -0.13441294
Zr       1.74510100       5.14611043       5.01324340      -0.40851450       0.02788164      -0.07720811
Nb       3.18559439      -0.21852524       0.09808064       0.37771755       0.34834492       0.02203888
Zr       5.17239011       1.64031688       1.59130647      -0.84266061      -0.20743015       0.75534588
Nb       3.30730049       0.05738171       3.15475228       0.23917021      -0.50964987       0.29876322
Nb       5.18675319       1.63972420       5.17830587      -1.02177632      -0.67854512      -0.75985610
Zr       3.22763585       3.20954658      -0.03595402       0.10202704       0.22512764       0.20012155
Nb       5.08942461       5.07175440       1.77299916      -0.50480467      -0.04846492      -0.06251259
Nb       3.31723601       3.45857222       3.28774240       0.27652591      -0.33036226      -0.07152937
Zr       4.91792749       5.09630837       5.13968887       0.03305353       0.31634915      -0.35756716
16
Lattice="6.88 0.0 0.0 0.0 6.88 0.0 0.0 0.0 6.88" Properties=species:S:1:pos:R:3:forces:R:3 group=ZrNb_md600_b0 composition=ZrNb energy=-147.00326538085938 pbc="T T T"
Zr      -0.33218190      -0.20533479       0.09794868      -0.10543121       0.32670569      -0.48246652
Nb       1.63428548       1.23970101       1.51634384       0.33033612       1.36946273       0.38120627
Nb      -0.02331133      -0.05630597       3.02493868      -0.52346116      -0.22657180       0.96982878
Zr       1.52974085       1.55454510       5.16402843      -0.17496820      -0.24561016      -0.42130053
Zr      -0.10955495       3.30641706       0.07254909      -0.35967797      -0.45284322      -0.14282307
Nb       1.67502628       4.98084444       1.67369411       0.19695470      -0.25203937      -0.12566054
Zr      -0.14807549       3.37153277       3.27589147       0.24674565      -0.65574586      -0.13203353
Zr       1.38840302       5.05557042       5.21045162       0.67449504       0.08505011      -0.26071280
Nb       3.33378005      -0.15675889      -0.03511156      -0.02604184      -0.44690311      -0.29546535
Zr       4.68489766       1.56347861       1.80641932       0.48669440      -0.21584907      -0.13038659
Nb       3.12304494      -0.31815752       3.49403705      -0.00463909       0.23725602      -0.47979376
Nb       4.79661284       1.44356189       4.82368204       0.84978575       0.13680497       0.56638813
Zr       3.54116461       3.29100708      -0.21181521      -0.55869645       0.21363834       0.23718894
Nb       4.90224612       4.99479274       1.68231855      -0.18974292       0.14187798       0.17103902
Nb       3.24190752       3.28437496       3.44839884      -0.44841188       0.13360070      -0.29342800
Zr       5.13729461       5.17749404       4.80855541      -0.39394090      -0.14883372       0.43841985
16
Lattice="6.88 0.0 0.0 0.0 6.88 0.0 0.0 0.0 6.88" Properties=species:S:1:pos:R:3:forces:R:3 group=ZrNb_md600_b0 composition=ZrNb energy=-146.9549560546875 pbc="T T T"
Zr      -0.10891396      -0.40551148      -0.11179389      -0.33595625       0.61718315      -0.08842822
Nb       1.38350043       1.28320433       1.60096174       0.29834324       0.22719440       0.38730338
Nb      -0.24653073      -0.47799555       3.51542115      -0.75283837       0.95961767      -0.51380819
Zr       1.66511718       1.52190548       4.83873743      -0.45282477      -0.08698478       0.13223086
Zr      -0.23776919       3.28909528      -0.18599141       0.36844611      -0.43642959       0.42225504
Nb       1.46408680       5.11148276       1.88550916       0.23018980      -0.23185128      -0.74569541
Zr      -0.22421172       3.05247094       3.11044220      -0.25067812       0.40779918       0.28418270
Zr       1.62840225       4.94386141       4.80860231       0.09437692      -0.20223089       0.61673427
Nb       3.06922722      -0.18401181      -0.07725557       0.18603623      -0.13642870      -0.09826086
Zr       4.84602232       1.38725165       1.49872922       0.42966926      -0.03317074       0.09844461
Nb       3.41531649      -0.02984778       3.35974132      -0.26183423      -0.52934784      -0.06672771
Nb       4.84282929       1.65157706       5.04431716       0.34546459      -0.58884686       0.03072391
Zr       3.00048840       3.13479926       0.07352881      -0.12431291       0.33385509      -0.02363782
Nb       4.72300844       5.04523411       1.57701577       0.61254555       0.05653679       0.21290022
Nb       3.39267667       3.41703640       3.14699846      -0.38275069      -0.82397556       0.17547649
Zr       4.78836664       4.84187345       5.27324660      -0.00387595       0.46708012      -0.82369328
16
Lattice="6.88 0.0 0.0 0.0 6.88 0.0 0.0 0.0 6.88" Properties=species:S:1:pos:R:3:forces:R:3 group=ZrNb_md600_b0 composition=ZrNb energy=-146.43655395507812 pbc="T T T"
Zr      -0.33846738      -0.44635266      -0.29302381       1.04957592       0.72689104       0.28561196
Nb       1.26188809       1.11896269       1.77913915       0.38784024       0.56203288      -0.37139523
Nb      -0.36020194      -0.28620040       3.43610490       0.12122457       0.18604936      -0.03713749
Zr       1.80505384       1.68248164       4.74556386      -0.68556958      -0.84603935       0.56606424
Zr      -0.22927747       3.28057761      -0.18744955       0.45415831       0.00334004       0.42254472
Nb       1.46844030       5.03823805       1.84201783      -0.24322481      -0.25447243      -0.22671537
Zr      -0.47505949       3.11044801       3.35002246       0.83230233       0.61257553      -0.48397321
Zr       1.69805668       4.89739837       4.90840438      -0.37734276       0.16602288      -0.15559532
Nb       3.07094905      -0.29349708       0.08275185      -0.15606740       0.29025060      -0.37303782
Zr       5.06042725       1.46002783       1.26500368      -0.32309401      -0.66614246       0.93364990
Nb       3.35860308      -0.16060038       3.35356826      -0.05159697       0.27627915      -0.51986843
Nb       4.96099319       1.69553005       5.07554468      -0.72055936      -0.83534372      -0.08247988
Zr       2.93413805       3.03971498       0.14366209       0.21208881       0.51102036      -0.34446537
Nb       4.86428045       5.02821277       1.71814846       0.17857106       0.03050247      -0.41548792
Nb       3.38051442       3.13820420       2.85987857      -0.49095616       0.08234802       1.16434050
Zr       4.69613692       5.05537314       5.15575375      -0.18735020      -0.84531426      -0.36205530
16
Lattice="6.88 0.0 0.0 0.0 6.88 0.0 0.0 0.0 6.88" Properties=species:S:1:pos:R:3:forces:R:3 group=ZrNb_md1400_b1 composition=ZrNb energy=-147.8127899169922 pbc="T T T"
Nb       0.00000000       0.00000000       0.00000000      -0.31069258       0.31069067       0.00000003
Nb       1.72000000       1.72000000       1.72000000      -0.23183483      -0.23183449      -0.00000006
Nb       0.00000000       0.00000000       3.44000000      -0.31069291       0.31069070      -0.00000057
Nb       1.72000000       1.72000000       5.16000000      -0.23183468      -0.23183420       0.00000120
Zr       0.00000000       3.44000000       0.00000000      -0.30644724      -0.30644578      -0.00000086
Zr       1.72000000       5.16000000       1.72000000      -0.22434199       0.22434378       0.00000024
Zr       0.00000000       3.44000000       3.44000000      -0.30644685      -0.30644551      -0.00000075
Zr       1.72000000       5.16000000       5.16000000      -0.22434199       0.22434278       0.00000104
Zr       3.44000000       0.00000000       0.00000000       0.30644599       0.30644432      -0.00000057
Nb       5.16000000       1.72000000       1.72000000       0.23405460      -0.23405266       0.00000013
Zr       3.44000000       0.00000000       3.44000000       0.30644611       0.30644462      -0.00000066
Nb       5.16000000       1.72000000       5.16000000       0.23405401      -0.23405275       0.00000063
Zr       3.44000000       3.44000000       0.00000000       0.30098122      -0.30098078      -0.00000036
Nb       5.16000000       5.16000000       1.72000000       0.23183480       0.23183462       0.00000030
Zr       3.44000000       3.44000000       3.44000000       0.30098197      -0.30097997       0.00000001
Nb       5.16000000       5.16000000       5.16000000       0.23183456       0.23183459       0.00000020
16
Lattice="6.88 0.0 0.0 0.0 6.88 0.0 0.0 0.0 6.88" Properties=species:S:1:pos:R:3:forces:R:3 group=ZrNb_md1400_b1 composition=ZrNb energy=-146.42909240722656 pbc="T T T"
Nb      -0.09882303       0.04814611      -0.03809435      -0.47720537      -0.16460924       0.02373736
Nb       1.80978044       1.77476767       1.70547209      -1.41033781      -0.76914996      -0.68554622
Nb       0.17017537       0.31101639       3.42696458      -0.77036095      -0.69871938      -0.16120377
Nb       1.72065390       1.74940741       5.24986152      -0.70013469      -0.29412520      -0.26782233
Zr      -0.12454101       3.17650822       0.13264642       0.12698531       0.72829038      -0.47866666
Zr       1.76425205       5.34467043       1.46795270      -0.80636644      -0.62283027       1.08190703
Zr      -0.09937912       3.64717332       3.47105964      -0.22662783      -0.56494594      -0.35652727
Zr       1.60016401       5.21083246       5.07267500      -0.11478657       0.11903134       0.10875046
Zr       3.32555846       0.08462528       0.07328869       1.08973765       0.14292365      -0.66023159
Nb       5.07691330       1.59721574       1.78748072       0.79433316       0.02409718      -0.46039498
Zr       3.61833162       0.08698573       3.56446349      -0.47384784      -0.95053637      -0.50121355
Nb       5.15100997       1.73541102       5.10958694       0.51956034      -0.13111821       0.22774544
Zr       3.41652414       3.40701099      -0.22676633       0.05886757      -0.17585704       0.44393405
Nb       5.01576851       4.94259770       1.52742918       0.47105926       1.04895270       0.61927146
Zr       3.22545753       3.10636960       3.24798813       1.05957735       2.09133911       1.02276659
Nb       4.97046825       5.13879662       5.10536602       0.85954720       0.21725713       0.04349425
16
Lattice="6.88 0.0 0.0 0.0 6.88 0.0 0.0 0.0 6.88" Properties=species:S:1:pos:R:3:forces:R:3 group=ZrNb_md1400_b1 composition=ZrNb energy=-145.90602111816406 pbc="T T T"
Nb      -0.28665833      -0.00487695       0.14145468       0.97096264      -0.18567163      -0.57441193
Nb       1.74799951       1.51740601       1.19363693      -0.29830524       0.50490898       1.21959078
Nb      -0.00367409       0.26011803       3.17584251      -0.14414647      -1.16644228       0.67114812
Nb       1.42023561       1.86227414       4.95447199       0.45665532      -0.53061384       0.68120623
Zr      -0.18304948       3.42404398       0.15501256       0.24829715      -0.28014162      -0.69758552
Zr       1.53368084       5.14239187       1.75865711       0.96310484       0.41794896      -0.45355418
Zr      -0.21782896       3.51694758       3.25370572       0.79097790       0.25291401       0.98330283
Zr       1.71254538       5.01073123       5.43967163      -0.61547804       1.00534022      -0.71488595
Zr       3.78461879       0.28585899      -0.22328686      -1.68517506      -1.26641059       0.76381475
Nb       5.14559721       1.85260162       1.82843915      -0.60864824      -1.11124432      -0.31977832
Zr       3.22028608       0.00542397       3.55906215       0.55863279       0.25715247      -0.51214105
Nb       5.42162188       1.51557833       5.08331251       0.02309380       1.00230134      -0.78493303
Zr       3.61160914       3.32433162      -0.11382723      -0.58475381       0.24003285       0.19469017
Nb       4.95533439       5.27695219       1.76689467      -0.08940837       0.26141798       0.15345767
Zr       3.41258860       3.35676254       3.35467036      -0.40982962      -0.15459514       0.27891839
Nb       5.14368774       5.02923757       5.25330012       0.42402130       0.75310278      -0.88883865
16
Lattice="6.88 0.0 0.0 0.0 6.88 0.0 0.0 0.0 6.88" Properties=species:S:1:pos:R:3:forces:R:3 group=ZrNb_md1400_b1 composition=ZrNb energy=-146.1024627685547 pbc="T T T"
Nb      -0.26976933       0.10510086      -0.11056850       0.86228967      -0.91305059      -0.15657875
Nb       1.45259019       1.80983241       1.59724506       0.70678252      -0.08900402       0.13868204
Nb      -0.09996701       0.12737396       3.17518916      -0.04140733      -0.22426848       1.22247565
Nb       1.69432438       1.80431858       5.76581104      -0.70866179      -1.12297130      -2.30403805
Zr      -0.18765839       3.63171554      -0.25332211       0.16838330      -0.28761548       0.23898807
Zr       1.67950224       5.35074498       1.79907352      -0.16448191      -0.66010940      -1.16476774
Zr      -0.09462721       3.31667728       3.38463393      -0.22103702      -0.25569314       0.40681645
Zr       1.61483299       5.06258137       4.92086769      -0.30011964       1.38245988       1.02878010
Zr       3.57080237      -0.00748305       0.02999721      -0.65716624      -0.59040529       0.14731704
Nb       5.21949280       1.67065102       1.59027569      -0.55693805       0.41247225       0.37384123
Zr       3.39908412       0.07254579       3.41887397      -0.21288687       0.67793375      -0.32881832
Nb       5.07186430       1.54440773       5.15660107       0.46644834       0.57732058      -0.59149694
Zr       3.52858987       3.38870606      -0.16996313       0.08191043       0.84454846       1.10498035
Nb       5.32011363       4.91456015       1.61828860      -0.90576726       1.13828611       0.67831880
Zr       3.26896669       3.33941874       3.56122230       0.63210291      -0.62192810      -1.05610442
Nb       4.96111677       5.27850232       4.85290855       0.85054952      -0.26797527       0.26160425
16
Lattice="6.753333333333334 0.0 0.0 0.0 6.753333333333334 0.0 0.0 0.0 6.753333333333334" Properties=species:S:1:pos:R:3:forces:R:3 group=TiZrNb_rattle05_b0 composition=TiZrNb energy=-139.34388732910156 pbc="T T T"
Zr      -0.05884601       0.03517856      -0.00419259       0.14926860      -0.36873838       0.13360590
Zr       1.70455401       1.75641748       1.73281049       0.18115759      -0.11150397      -0.11836123
Ti      -0.01243074      -0.05358865       3.33323842       0.19173175      -0.06721485       0.05354396
Ti       1.65448391       1.73150520       5.10472649       0.21610901      -0.02572350      -0.03155401
Ti       0.13538550       3.40245272       0.06077718      -0.33437148       0.27242431      -0.20399767
Nb       1.73702304       4.97977685       1.66142273       0.04783428       0.20945090       0.02297178
Zr      -0.05967281       3.35299797       3.37931928       0.15302628       0.34329396       0.17993614
Nb       1.70671186       5.10697693       5.08919533       0.04299715      -0.12813641       0.01482262
Nb       3.30131290      -0.01388536       0.00495095       0.18169865      -0.15122806       0.08409258
Ti       5.17759912       1.74368359       1.68409033      -0.44585127       0.05032196      -0.15634796
Zr       3.46664359       0.05699016       3.33580883      -0.26750392      -0.20146155      -0.03568226
Zr       5.05267617       1.62665829       5.08894923      -0.03168248       0.39845842       0.21923482
Ti       3.41126148       3.40324925       0.01868926       0.04805757       0.20333940      -0.06563524
Ti       5.06152987       5.07228688       1.72736689      -0.12193251      -0.18088956      -0.32013193
Nb       3.38354706       3.44857188       3.46745699       0.02951134       0.06478810      -0.11575738
Nb       5.06183723       5.11154428       5.03167051      -0.04005042      -0.30718085       0.33925998
16
Lattice="6.753333333333334 0.0 0.0 0.0 6.753333333333334 0.0 0.0 0.0 6.753333333333334" Properties=species:S:1:pos:R:3:forces:R:3 group=TiZrNb_rattle05_b0 composition=TiZrNb energy=-139.3502960205078 pbc="T T T"
Ti      -0.07679337       0.06115326       0.00793236       0.19297482      -0.19655427       0.13513969
Ti       1.71833102       1.70687737       1.72307672      -0.27291983      -0.01527267       0.11152478
Nb      -0.03366082      -0.07666594       3.42584846      -0.04065425       0.16333586      -0.43149513
Zr       1.66999692       1.67360604       5.08488056      -0.22698413       0.18247581      -0.20242186
Nb       0.07520266       3.37227418       0.02652887      -0.03557409      -0.06268336       0.28524321
Ti       1.76834744       5.01909118       1.68975466      -0.32082033       0.07323161       0.07074511
Ti       0.02487072       3.43120603       3.39581633       0.03761220      -0.15709642      -0.28890038
Zr       1.75053329       5.07685623       5.05134572      -0.33647633      -0.15621860       0.02981190
Zr       3.35842851       0.02521146       0.02839292       0.02936566      -0.04632130       0.27850002
Ti       5.06002292       1.62004352       1.64435366       0.14906490       0.25461456       0.38739482
Nb       3.30470775       0.01306250       3.40441718       0.29096878       0.00437289      -0.42964000
Zr       5.03812460       1.81685682       5.04478806       0.23438016      -0.24832413      -0.24349052
Nb       3.39894825       3.34035153      -0.01272221      -0.11548675       0.00787953       0.40566260
Zr       5.09714328       4.96873789       1.62795690       0.06036530       0.02126000       0.30536070
Ti       3.32202703       3.38679257       3.36982566       0.14403172      -0.08448778      -0.26182887
Nb       5.05585392       4.97180347       5.06466026       0.21015240       0.25978830      -0.15160586
16
Lattice="6.753333333333334 0.0 0.0 0.0 6.753333333333334 0.0 0.0 0.0 6.753333333333334" Properties=species:S:1:pos:R:3:forces:R:3 group=TiZrNb_rattle05_b0 composition=TiZrNb energy=-139.2501220703125 pbc="T T T"
Nb       0.02828020      -0.11745494       0.05751368      -0.06854472       0.33227551       0.23756342
Ti       1.71139812       1.79514081       1.64507703      -0.28520045      -0.65238225       0.38308990
Ti      -0.06668976       0.04085622       3.41406465       0.18573050       0.14491701      -0.33158278
Nb       1.81771121       1.58862265       5.05228492      -0.62170017       0.10219413      -0.08510435
Ti       0.03501714       3.25707146       0.02973905      -0.01544499       0.10096593       0.10697544
Zr       1.70089305       4.97735335       1.72729062      -0.22963265       0.43111247       0.15264252
Nb       0.00040988       3.32960004       3.44446794       0.07808396      -0.28317401      -0.43120787
Zr       1.78767188       5.05496675       5.03551912      -0.41546825       0.00678284      -0.06299698
Ti       3.27535476      -0.00207353      -0.05326322       0.32881582       0.01681215       0.45042661
Nb       5.02416723       1.64241740       1.65759425       0.22911114      -0.26229683       0.32207629
Ti       3.31852295       0.02872341       3.42222651       0.25744897       0.12656106      -0.44886613
Zr       5.08095487       1.71379404       5.14900096       0.20664144      -0.49711674      -0.27448785
Zr       3.37634898       3.34637211       0.05628410       0.12315595       0.04912367       0.10208950
Ti       5.07052955       5.01046028       1.72917949       0.12237848       0.19515753       0.04283538
Nb       3.38650888       3.32947259       3.38401624       0.09315555      -0.20520192      -0.25553608
Zr       5.13862166       4.99312065       4.99363443       0.01146929       0.39426947       0.09208313
16
Lattice="6.753333333333334 0.0 0.0 0.0 6.753333333333334 0.0 0.0 0.0 6.753333333333334" Properties=species:S:1:pos:R:3:forces:R:3 group=TiZrNb_rattle05_b0 composition=TiZrNb energy=-139.20953369140625 pbc="T T T"
Ti       0.12184336      -0.02044058       0.02035793      -0.47585484       0.05456910      -0.14128511
Zr       1.69651686       1.78325800       1.68890325      -0.47730052      -0.43635589      -0.06709294
Ti      -0.01155922       0.11137566       3.31292839      -0.10175240      -0.27241927       0.21936277
Ti       1.74893944       1.67287255       5.03724120      -0.48844439      -0.15043958       0.09048932
Nb      -0.05856575       3.40762831      -0.07019493       0.01313750       0.06985109      -0.10168313
Zr       1.65680790       5.02260498       1.64401993      -0.40900058       0.41299820       0.26056179
Ti       0.03264832       3.40734124       3.41046734      -0.33314908       0.08271171       0.11128154
Ti       1.74528015       5.04067125       5.11578630      -0.40583539       0.34873229      -0.26246852
Nb       3.23381795       0.03738582       0.00016837       0.46176755      -0.19225045      -0.17263973
Nb       5.05513458       1.70791480       1.68170576       0.39703536      -0.26692232       0.00159692
Nb       3.32070362       0.00810999       3.34690365       0.16728339      -0.22202814       0.26568344
Zr       4.99674499       1.69220030       5.08945806       0.55659276      -0.44803655      -0.08844060
Zr       3.39951138       3.43824980      -0.03608483       0.12134975       0.07761776      -0.10295564
Nb       5.00441645       5.11318996       1.77410028       0.51561093       0.26782811      -0.09757006
Zr       3.32906175       3.34986537       3.38630095       0.31818789       0.33719942       0.22467390
Ti       5.09720749       5.11501407       5.10913136       0.14037216       0.33694458      -0.13951389
16
Lattice="6.753333333333334 0.0 0.0 0.0 6.753333333333334 0.0 0.0 0.0 6.753333333333334" Properties=species:S:1:pos:R:3:forces:R:3 group=TiZrNb_rattle10_b1 composition=TiZrNb energy=-138.7991180419922 pbc="T T T"
Ti       0.00544042      -0.17549403       0.02880999      -0.26899037       0.63522667      -0.68058425
Zr       1.77260061       1.83878381       1.80765784      -0.29354951      -0.18630555      -0.64137143
Nb       0.14733116       0.02809917       3.44085166      -0.58606440      -0.25761735       0.24566272
Nb       1.74757224       1.66696131       5.05819215      -0.04692766       0.01021139       0.32762200
Zr      -0.02614173       3.32115106      -0.09953633       0.20820224       0.10071839      -0.16904375
Nb       1.46882742       5.19598607       1.49675872       0.67400759      -0.45947632       0.49374101
Ti      -0.04089757       3.47167526       3.37764741       0.42521483       0.02962381       0.15718961
Ti       1.60967483       4.97940853       5.10848270       0.39813778       0.16936207      -0.11423078
Nb       3.38264136      -0.00905196      -0.03517384       0.05966471      -0.18555003      -0.31295431
Zr       5.19893485       1.81668265       1.58045942       0.08652788      -0.80829704       0.11621451
Zr       3.32105634      -0.08444288       3.28250866       0.25101960      -0.12151295       0.45304215
Ti       5.02894206       1.71024050       4.94581981       0.27007753      -0.64138442       0.35365641
Ti       3.59688385       3.43927538       0.03306344      -0.83034360       0.15271273      -0.34565976
Ti       5.08097908       5.15034904       1.74697431       0.22568972       0.19592983      -0.31984907
Zr       3.58687392       3.37825844       3.32207387      -0.92545044       0.37006500       0.11310196
Nb       4.98919257       4.87129784       5.02248100       0.35278413       0.99629354       0.32346323
16
Lattice="6.753333333333334 0.0 0.0 0.0 6.753333333333334 0.0 0.0 0.0 6.753333333333334" Properties=species:S:1:pos:R:3:forces:R:3 group=TiZrNb_rattle10_b1 composition=TiZrNb energy=-138.84335327148438 pbc="T T T"
Zr       0.05061917       0.14329700      -0.28276999      -0.41857368      -0.42525357       0.92827821
Nb       1.58872242       1.72157003       1.83057069       0.39129522       0.30940443      -0.79131055
Zr      -0.09631677      -0.15777688       3.20328776      -0.34554854       0.65172529       0.29409778
Nb       1.65927335       1.62383531       5.03917360       0.67129862       0.65830082       0.19384986
Nb      -0.03615698       3.47697276       0.05657275      -0.01232526      -0.35770869      -0.25914326
Zr       1.78577718       5.25278813       1.64642369      -0.05792981      -0.85914576      -0.28082329
Zr       0.06377815       3.37267623       3.40546801      -0.41580874      -0.29797924       0.11880532
Nb       1.73519019       4.99503345       5.21622930       0.39817646      -0.20963877      -0.22773857
Ti       3.41907505       0.02982887       0.06420875       0.08676049       0.11424491      -0.56174791
Ti       4.86973913       1.74472299       1.45717629       0.42365435      -0.03225836       0.53919011
Zr       3.26812029      -0.00893050       3.39205343       0.66265988       0.24643265       0.39680821
Ti       5.09686499       1.62939008       5.07808920      -0.58036429       0.58495897      -0.21816115
Ti       3.38336545       3.31619032       0.05031376      -0.24581753       0.04154658      -0.45496741
Nb       5.04297656       4.93803203       1.65089793      -0.22167388       0.08989162      -0.37588403
Ti       3.32412033       3.43734828       3.30995775       0.18715163      -0.31618530       0.34981194
Ti       5.12990320       5.01266176       5.00454234      -0.52295524      -0.19833525       0.34893453
16
Lattice="6.753333333333334 0.0 0.0 0.0 6.753333333333334 0.0 0.0 0.0 6.753333333333334" Properties=species:S:1:pos:R:3:forces:R:3 group=TiZrNb_rattle10_b1 composition=TiZrNb energy=-138.81591796875 pbc="T T T"
Nb       0.10110324      -0.07556062       0.20759166      -0.82046735      -0.05496043      -0.35784858
Zr       1.58854860       1.72709050       1.73682139       0.52647650      -0.47500131      -0.41638568
Nb       0.07007334       0.00670382       3.28533109      -0.59178650      -0.45493701       0.33826181
Ti       1.54004878       1.72305316       5.00732661       0.36354622      -0.49842152       0.71129417
Nb       0.09268580       3.33253804       0.10232091      -0.65581566       0.31326601      -0.31038371
Ti       1.86379304       4.88672523       1.69365567      -0.38723314       0.60032248       0.04121707
Zr       0.08252373       3.25381527       3.43583797      -0.76412189       0.80715209      -0.01288640
Zr       1.66189211       5.25558925       5.15738235      -0.15073687      -0.32310027      -0.05130886
Nb       3.35553518      -0.00540534       0.14183564       0.43088713      -0.00110509      -0.27916700
Nb       4.90735439       1.58241005       1.66110508       0.54251969       0.13691221      -0.41689152
Zr       3.52591678      -0.06347661       3.49634063      -0.07075730       0.27193487      -0.12184411
Ti       5.14249881       1.79675248       5.22936041       0.05515052      -0.49957550       0.26861784
Ti       3.22533315       3.38077588      -0.09610358       0.55810505      -0.21416672       0.03687189
Ti       5.00656664       4.88449249       1.74724254       0.38977695       0.39012316      -0.57681996
Zr       3.49104470       3.28977524       3.32829138      -0.02052095       0.02636889       0.60363007
Ti       4.99260956       5.06697770       5.10129147       0.59497768      -0.02481207       0.54364330
16
Lattice="6.753333333333334 0.0 0.0 0.0 6.753333333333334 0.0 0.0 0.0 6.753333333333334" Properties=species:S:1:pos:R:3:forces:R:3 group=TiZrNb_rattle10_b1 composition=TiZrNb energy=-138.4765167236328 pbc="T T T"
Ti      -0.12812979       0.09853842      -0.07774031       0.27435023      -0.17069425       0.27212834
Ti       1.63791194       1.77581042       1.63297597       0.55015099      -0.94996375       0.71793079
Ti      -0.04239132       0.04730540       3.42672134      -0.19714987       0.31038508      -0.23195316
Nb       1.53771994       1.66951917       5.08436444       0.49462259       0.17346910      -0.49976438
Zr       0.10468967       3.21903512       0.17502406      -0.42140287       0.90007144      -1.13978279
Nb       1.63171726       5.19206039       1.88337571      -0.53468585      -0.00158677      -1.02275765
Ti       0.05056497       3.44671620       3.10798759      -0.15063101      -0.40052834       1.16172040
Zr       1.67327537       5.09668915       5.00633539      -0.52609372      -0.30843228       0.52911955
Zr       3.46798085      -0.02874155       0.03453117      -0.37766844       0.67089844      -0.18462324
Nb       5.06975098       1.90381825       1.64063464      -0.50165832      -0.77729326       0.47978836
Zr       3.35970108      -0.22094445       3.36735949       0.38004869       1.61065459       0.28621787
Nb       5.12389890       1.68713156       4.95943105      -0.37711650       0.52083105      -0.12099718
Ti       3.18904946       3.46292468       0.10573878       0.39610571      -0.40038067      -0.44200230
Zr       4.97995609       5.01042992       1.68943023       0.65809387       0.27882278      -0.05220428
Ti       3.23770120       3.51647086       3.23639797       0.20997420      -1.07106149       0.55048662
Nb       5.11161220       5.00928823       5.13715838       0.12306004      -0.38519153      -0.30330724
16
Lattice="6.753333333333334 0.0 0.0 0.0 6.753333333333334 0.0 0.0 0.0 6.753333333333334" Properties=species:S:1:pos:R:3:forces:R:3 group=TiZrNb_rattle18_b2 composition=TiZrNb energy=-135.00244140625 pbc="T T T"
Nb      -0.05823594      -0.04636816      -0.30777512       3.35577393       0.10294725       2.65102315
Zr       1.82247958       1.61558770       1.49693392      -0.97721982       0.06154922       0.30065811
Nb      -0.16641592       0.11439438       3.61784351       0.24732429      -0.70144957      -2.73610711
Nb       1.75176775       1.39118844       4.63736284      -0.77120638       2.61529922       2.14063287
Zr      -0.17874806       3.41521705      -0.10357227       3.79318786      -2.50620103      -0.40576199
Zr       1.97812766       5.12950909       1.70208012      -1.03764856       0.80518490      -0.32416457
Ti       0.00033262       3.27369339       3.28213787      -0.06144972       0.02736880       0.03333553
Ti       1.90225440       5.24916299       4.80324770      -0.96548998      -0.80610138       1.23646116
Nb       3.50475194       0.16483283      -0.20319523      -1.92321801      -2.07174373      -0.00550950
Zr       4.93585030       1.39440495       1.45889893       1.10527945       0.91984099       2.22385406
Ti       3.43453961       0.21337602       3.64621268       1.93444920      -1.03928483      -1.71444046
Ti       5.23906344       1.40482556       5.38728697      -1.18295062       3.10548544      -2.32498145
Nb       3.36349231       3.45767329       0.08218612      -0.32882541      -0.27324301      -1.35080302
Ti       5.35980158       4.85110149       1.27458117      -1.68209040       2.02265501       2.99703074
Ti       3.24280052       3.60273591       3.48145726       1.36599803      -1.31019294      -0.08410854
Zr       5.35671299       5.05308583       5.16062409      -2.87191486      -0.95211351      -2.63712001
16
Lattice="6.753333333333334 0.0 0.0 0.0 6.753333333333334 0.0 0.0 0.0 6.753333333333334" Properties=species:S:1:pos:R:3:forces:R:3 group=TiZrNb_rattle18_b2 composition=TiZrNb energy=-136.31329345703125 pbc="T T T"
Ti      -0.28175144       0.05737163      -0.14625939       1.20164800      -0.79888642      -0.03878507
Zr       1.79617240       1.81155137       1.74669663       0.64641821      -2.00192499      -1.35521030
Nb      -0.27388948      -0.11052212       3.36209126       2.45230556       0.69374210       1.51037562
Zr       1.79570650       2.14520288       5.19180476       0.09932733      -2.32254577      -0.55836767
Ti       0.12083076       3.51568315       0.09036670      -1.06130314      -0.18892956      -0.11142403
Nb       1.52130185       5.08685633       1.70895620       0.99179947       0.81537521       0.45096630
Nb       0.24529896       2.97109220       3.26030071      -1.01416779       2.81321359       1.69220233
Nb       1.36873901       5.05492819       5.28634925       1.22483957       1.08797288      -1.47669220
Ti       3.45482172       0.10180833      -0.00424669      -0.30305073      -0.62998104      -0.08963018
Zr       5.49614363       1.59356579       1.70094687      -2.50723267       0.67734861      -1.18107080
Ti       3.40026628       0.21764097       3.24613864      -0.28153431      -0.90527749       0.72036338
Zr       5.18895574       1.87194157       5.10581909      -0.75303632       0.39306220       0.05099195
Ti       3.09187753       3.49624096       0.11958597       2.06923294       1.14365816       0.26590538
Zr       5.29471662       4.94503617       1.91924805      -1.41231954      -0.41150331      -1.79180527
Ti       3.57209201       3.28417828       3.16196366      -0.51085132       0.61715585       0.75928366
Nb       5.02471964       5.16920779       4.86918897      -0.84207654      -0.98248053       1.15289676
16
Lattice="6.753333333333334 0.0 0.0 0.0 6.753333333333334 0.0 0.0 0.0 6.753333333333334" Properties=species:S:1:pos:R:3:forces:R:3 group=TiZrNb_rattle18_b2 composition=TiZrNb energy=-133.91973876953125 pbc="T T T"
Nb      -0.17408042      -0.14131171      -0.09309162       1.14775252       0.58936542      -0.94246250
Nb       1.73578356       1.75253360       1.75904514      -0.09045433      -0.31536612      -1.23800361
Zr      -0.13409544      -0.02308612       3.18884634       4.48546600      -0.14167911       4.68126392
Zr       1.85258059       1.53861318       4.95960552      -0.34039381       1.02747488      -0.23310119
Ti       0.09240520       3.20287574      -0.04023051       0.06153479       0.69248992       0.76586688
Nb       1.65505124       5.03377638       1.66961503       0.39889714       0.41212606       0.52562720
Ti       0.08000240       3.17426754       3.27978689       0.67436123       1.80938852      -0.34166789
Zr       1.81802206       4.99067353       5.37924241      -2.00824714       1.40502381      -4.12147141
Ti       3.15231307       0.24218376      -0.02495378       1.53087854      -0.54666722       0.77162760
Zr       5.31705863       1.45535882       1.65890700      -0.35504293       4.48775911      -4.16238213
Nb       3.73328388       0.42279825       3.10703942      -3.15872812      -2.53886795       2.50168347
Zr       5.20110751       2.12929230       4.93068783      -1.27263045      -1.20039439       1.09028935
Ti       3.29897696       3.84653434      -0.18914484       2.74105310      -2.62830305       2.46555614
Ti       5.33443506       5.50942437       1.80727903      -2.89051366      -5.04029036      -2.53736138
Ti       3.56458774       3.25753266       2.71151361       0.02101164       1.69857478       1.18716955
Nb       5.27862547       5.01653291       5.06985854      -0.94494474       0.28936598      -0.41263318
16
Lattice="6.753333333333334 0.0 0.0 0.0 6.753333333333334 0.0 0.0 0.0 6.753333333333334" Properties=species:S:1:pos:R:3:forces:R:3 group=TiZrNb_rattle18_b2 composition=TiZrNb energy=-135.13221740722656 pbc="T T T"
Nb      -0.29229752       0.03347703      -0.24133288       1.87582755       0.22684340       0.52266580
Zr       1.89495524       1.77290744       1.58255949      -0.57061350      -2.32913971       1.79967630
Ti      -0.01346551      -0.00721505       3.23716465       2.36353159      -1.34391582       1.48664761
Nb       1.77882597       1.82436039       5.05776304      -0.62332636      -1.56676662      -0.82311940
Nb       0.15232323       3.25096247       0.31423310      -1.61717582       0.84842110      -1.97290802
Ti       1.49386274       4.81731098       1.96498465       0.77767533       2.17404866      -1.56382084
Zr      -0.09267050       3.36188287       3.28902274       0.24264741       0.89576226       0.60804504
Ti       1.25095259       5.08506753       5.22480253       1.30816162       0.29785728      -0.06256077
Ti       3.55965995       0.28446167       0.03504314      -0.46718577      -1.21699750      -1.35696030
Zr       5.36331412       1.43098673       1.92002280      -2.21080756       2.40508032      -1.75535536
Nb       3.55923698      -0.28302205       3.12723124      -1.83728456       1.06715989       2.07501006
Ti       5.55132834       1.69282569       4.80948315      -1.97239435       0.04237105       1.46768892
Zr       3.21313071       3.22239185      -0.03639771       2.66675305       2.31182170      -0.20210689
Nb       5.14649507       5.46855609       1.54946705       0.08261664      -3.13526368      -0.74101096
Zr       3.32940545       3.63134783       3.53774413       0.84427470      -0.65550929      -0.12621272
Ti       5.29538102       5.06704736       4.95718861      -0.86269963      -0.02177413       0.64432216
54
Lattice="10.13 0.0 0.0 0.0 10.13 0.0 0.0 0.0 10.13" Properties=species:S:1:pos:R:3:forces:R:3 group=TiZrNb_rattle10_b9 composition=TiZrNb energy=-471.275634765625 pbc="T T T"
Zr      -0.00778826       0.02419603       0.10261064       0.00732361       0.06036616      -0.46332934
Zr       1.72830403       1.65653350       1.76586645      -0.07265818       0.77305543      -0.50851047
Nb       0.08948662      -0.09510085       3.13617468      -0.06893072      -0.20764300       0.89782768
Nb       1.76347877       1.71936325       4.97899600      -0.24760059       0.26503548      -0.01742239
Ti       0.10924190       0.08251507       6.72256158      -0.17722879      -0.18023638      -0.16722257
Nb       1.54769566       1.68790602       8.32208406       0.22996552       0.33966705       0.56219548
Nb      -0.15062402       3.58626984      -0.04161798       0.07265028      -0.43934211       0.14443052
Ti       1.69854368       5.11365522       1.64320501      -0.26896107      -0.18363611       0.07122448
Ti       0.00661982       3.27596814       3.53389779      -0.09980942       0.64697200      -0.65546715
Nb       1.40094670       5.06247760       5.06121937       0.78303707      -0.35280681      -0.46464089
Nb       0.00630675       3.30840199       6.74683736      -0.17813426       0.21490231       0.19916910
Nb       1.62738219       4.99573396       8.46227877      -0.25602937      -0.12565973       0.38849437
Ti       0.07326480       6.75683311       0.00574946      -0.40909830      -0.27883914       0.19050388
Ti       1.80213775       8.34369941       1.59975698      -0.28439751       0.00335740      -0.01215813
Nb       0.00008103       6.81644388       3.40983052      -0.14093336      -0.18518855      -0.63590688
Ti       1.73392194       8.43134497       5.02912077      -0.37044281       0.10205501      -0.22996917
Zr      -0.06279529       6.77431485       6.58150092       0.11613619      -0.17319390       0.57353514
Zr       1.59346536       8.36336479       8.28445298       0.07706034       0.21171090       0.66115850
Ti       3.25242069      -0.06373044      -0.10834430       0.10705626       0.05916808      -0.03676090
Ti       4.86335957       1.47691772       1.61258048       0.64345843       0.89147615       0.06149283
Zr       3.45383788       0.04422027       3.36329316      -0.16097498      -0.17050093       0.28661472
Ti       5.23018114       1.67456647       5.18280176      -0.42029846       0.01455563      -0.60312581
Zr       3.34220894       0.00664105       6.64440345      -0.15766662       0.50503951       0.33957881
Zr       5.14185125       1.75764568       8.43701419      -0.77640569      -0.03926960       0.37342054
Ti       3.42262308       3.41797756       0.05870754      -0.31947422       0.06597647      -0.01043612
Nb       5.14358801       4.98983263       1.76631364      -0.02801332      -0.31308848      -0.22253515
Ti       3.43174847       3.53424249       3.22433842      -0.11418028      -0.24608970       0.32866111
Zr       5.19729396       4.97732812       5.09756217      -0.43160108       0.17879817      -1.26051033
Zr       3.36153768       3.47954871       6.73594678      -0.74327105      -0.60394710      -0.35455012
Zr       4.99291194       5.16980964       8.32274603       0.47781256      -0.75078750       1.33288455
Ti       3.39701677       6.69611440      -0.04921835      -0.15303703       0.06726798       0.46803349
Ti       5.02932459       8.59446839       1.74214889       0.10267687      -0.33487004      -0.21940055
Zr       3.35550120       6.83370299       3.32131406      -0.02552684      -0.45057529       0.03619358
Nb       4.82109776       8.42157811       5.27527466       1.10219228       0.01481962      -0.84056807
Zr       3.43799531       6.69165282       6.94639645      -1.02401769       0.26074392      -1.03824174
Nb       4.96874835       8.50863900       8.38956908       0.19005823       0.10816307       0.53400701
Zr       6.66244722       0.06056955      -0.00723774       0.34336630      -0.33675170       0.56270468
Nb       8.48648660       1.62119328       1.78279001      -0.29460216       0.58929563      -0.17443830
Nb       6.70517612       0.05008903       3.50922911       0.02514173      -0.42860603      -0.38555527
Zr       8.51953399       1.62103088       5.05418490       0.25463885       0.05910816      -0.22789304
Zr       6.93459391       0.05337624       6.94961865      -0.38050717      -0.77397698      -0.83162725
Ti       8.44402724       1.58380059       8.42881822       0.69835961       0.73819304       0.45388043
Ti       6.75392508       3.26946429      -0.09556233       0.38528621       0.38611811       0.68200099
Nb       8.38714905       5.11567918       1.62235684       0.07304845      -0.19801520       0.42511529
Ti       6.90415256       3.22231465       3.32862676      -0.23714888       0.24255338      -0.37433898
Nb       8.36707547       5.15407549       5.07952181       0.29797226      -0.37692675      -1.02622747
Zr       6.71070750       3.45680228       6.67526716       0.97095090      -0.38549006       0.38032523
Ti       8.41077040       5.03904260       8.35062616       0.24786146       0.08123658       0.48046362
Zr       6.48969230       6.72292972       0.00838848       0.78668851       0.31301874       0.29847950
Nb       8.49522447       8.49465282       1.70550462      -0.39259976      -0.57948375       0.20717987
Ti       6.56034089       6.81476572       3.35449180       0.70042938       0.30704170      -0.01223741
Nb       8.58660372       8.53462696       5.01904240      -0.34260309       0.06886220      -0.46180654
Zr       6.84218453       6.81946103       6.68082368       0.09604616       0.59468257       0.10214642
Nb       8.57837792       8.40664410       8.48170839      -0.21306519      -0.04831543       0.19315860
54
Lattice="10.13 0.0 0.0 0.0 10.13 0.0 0.0 0.0 10.13" Properties=species:S:1:pos:R:3:forces:R:3 group=TiZrNb_rattle10_b9 composition=TiZrNb energy=-470.8350524902344 pbc="T T T"
Nb      -0.02510176      -0.23272477      -0.08772622      -0.35885027       1.03499424       0.67394477
Zr       1.56475658       1.90351923       1.63821056      -0.21554485      -0.82645404      -0.08764099
Nb      -0.10064016      -0.02776267       3.44130205       0.13679360       0.05335400      -0.32167897
Ti       1.65043163       1.58664008       4.95788710      -0.24467202       0.00641215       0.28665042
Nb      -0.18042833      -0.00039908       6.83887700       0.53665936       0.34383050      -0.60713547
Ti       1.60334691       1.75296300       8.42976455       0.26274550      -0.29946318      -0.33211955
Ti      -0.03525475       3.29414011      -0.23335641      -0.10225324       0.44510236       0.44232771
Ti       1.72175261       5.20621165       1.74648399      -0.07483918      -0.57734179      -0.14320765
Ti      -0.10127746       3.34593967       3.23691640       0.17207518      -0.00342674       0.13010290
Zr       1.76906908       5.00644430       5.08398387      -0.17091666      -0.46536294      -0.88077950
Zr      -0.13659507       3.65146667       6.74345295       1.45521116      -1.72229719      -0.39757448
Zr       1.84712407       5.10359440       8.40881737      -0.35547960      -0.49810946       0.70700723
Nb      -0.04758021       6.61467331      -0.01191482      -0.10350341       0.06244700       0.23802437
Ti       1.63203810       8.48836364       1.65722227      -0.10705134      -0.01621759       0.11439475
Zr      -0.02682678       6.81531705       3.39666558       0.09017479      -0.07629262      -0.61627030
Ti       1.61694943       8.39095966       4.96320569      -0.17612827       0.89148664       0.62286943
Nb       0.17510571       6.74199170       6.72698507      -0.82040572       0.29319251      -0.14928380
Zr       1.46419348       8.45990079       8.33148313       1.00084233       0.31028885       0.08534397
Zr       3.32381956       0.02038931       0.05949221       0.21129148      -0.03855424      -0.45328099
Ti       4.85875339       1.58944737       1.76507292       0.35196704       0.39131725      -0.47518152
Ti       3.36106330      -0.16296042       3.43246864      -0.37098989       0.33040375      -0.15319222
Zr       4.89446110       1.80466751       4.98347561       0.40617964      -0.06566428       0.45070130
Nb       3.38488132       0.07523194       6.62350445      -0.31807253      -0.12521419       0.45254141
Nb       5.11955791       1.66364934       8.37239056      -0.38125139      -0.19694765       0.02692202
Ti       3.25690772       3.32747371       0.01017682       0.60264480       0.13159864      -0.04625592
Ti       5.11944605       5.14039426       1.57452089      -0.40124190      -0.15407968       0.68685287
Nb       3.25736922       3.10656918       3.31400056       0.38038635       1.21330631      -0.10735875
Nb       5.23433047       5.31095355       4.92781621      -0.53620803      -1.54854786       0.06804460
Ti       3.33463352       3.54241588       6.66142154       0.43592992      -1.06493032       0.12227984
Ti       5.08409649       4.94419210       8.30017205      -0.19655770      -0.24079703       0.40897292
Zr       3.38325812       6.74886986       0.00514993       0.21046840       0.19202954       0.35086340
Nb       5.14028839       8.45560520       1.74417119      -0.18345974      -0.14796932      -0.26212600
Zr       3.39749420       6.82896453       3.59783785      -0.11120498      -0.28341442      -1.53759122
Nb       4.95941016       8.41809119       5.07243569       0.54682600       0.97660094       0.43171874
Zr       3.38758680       6.69663638       6.76875041       0.24470744       0.57639968       0.07981871
Nb       5.17040227       8.35958008       8.37759229      -0.59051186       1.10996687       0.41530743
Nb       6.71730415      -0.10983051       0.05353363       0.15647057       0.41549003      -0.25470302
Nb       8.53592258       1.76825370       1.41889420      -0.13672639      -0.39643818       0.37552589
Zr       6.58739048       0.10507316       3.31145264       0.77278596      -0.32167152       0.05056745
Zr       8.36687928       1.72915526       5.09528333       0.30402455      -0.65464294      -0.58864480
Ti       6.88038294      -0.11052981       6.85362667      -0.49106133       0.15863547      -0.11685607
Ti       8.38645305       1.81863712       8.35854880       0.10288247      -0.91066581       0.66539121
Zr       6.66726140       3.37551743       0.04887353       0.02367436      -0.20682955      -0.20576291
Ti       8.45093987       5.06308008       1.71330527       0.07217662       0.00038955      -0.26477379
Nb       6.75623525       3.54506631       3.18751771      -0.47241193      -0.44060373      -0.15096241
Zr       8.43102085       4.99595418       4.92141640      -0.00267637       0.50591892      -0.24808431
Zr       6.91543218       3.37847533       6.72125191      -1.41191530       0.03493676       0.11453962
Ti       8.58373264       5.02166388       8.18014122      -0.60039604       1.02843368       1.44918692
Zr       6.79346989       6.68795229      -0.12343599       0.23077904       0.02913937       0.58415985
Ti       8.47067933       8.42870615       1.72337697      -0.14937836       0.18823285      -0.18122542
Nb       6.74080102       6.90033167       3.55636868       0.21511200      -0.01123054      -1.19946766
Nb       8.49183534       8.26836072       5.13254986      -0.17884979       0.89601207       0.20452763
Zr       6.64110886       6.77758748       6.86228335       0.85613418      -0.07135603      -0.38352820
Nb       8.54171568       8.48485107       8.47367364      -0.51638401      -0.25539675      -0.07390173
54
Lattice="10.13 0.0 0.0 0.0 10.13 0.0 0.0 0.0 10.13" Properties=species:S:1:pos:R:3:forces:R:3 group=TiZrNb_rattle10_b9 composition=TiZrNb energy=-471.4249267578125 pbc="T T T"
Zr       0.01332836      -0.09281173       0.10098026       0.64310563       0.09838293      -0.19498859
Ti       1.59724105       1.70066464       1.59494558       0.67863303      -0.22212005       0.15613064
Nb      -0.08035569      -0.07181402       3.26256486       0.88223159       0.12905852       0.48636374
Nb       1.76165533       1.64228832       4.90388290       0.36100879       0.04058834       0.25489593
Zr       0.05123882       0.19117705       6.77064828       0.00911559      -0.27238637      -1.11078894
Nb       1.65389103       1.77364738       8.30563045       0.82522452       0.13586348       0.04197624
Zr      -0.03223975       3.35931451      -0.15178812       0.61529398       0.43474835       0.18278110
Nb       1.66678370       5.08911806       1.68858507       0.38864517       0.04873070      -0.07977279
Zr       0.05188890       3.34930550       3.50003266       0.40047622       0.25790292      -0.10276996
Nb       1.64031270       5.17219523       5.04935116       0.40196979       0.07168274       0.12654066
Ti       0.06273238       3.47375432       6.64627293       0.01704369       0.14227346      -0.20201778
Ti       1.75008777       4.93576893       8.35876776       0.00690532       0.65553868      -0.00843786
Nb      -0.17370742       6.63490846       0.00870055       1.15640032      -0.03752016      -0.35320464
Ti       1.70015411       8.32722898       1.60406250       0.04688872       0.23729429       0.41427755
Ti       0.08495589       6.66115808       3.21156364      -0.01923290       0.15355560       0.57162559
Nb       1.64537941       8.48677937       4.79293082       0.13745911      -0.16838089       0.31222612
Nb      -0.04531433       7.07876003       6.65348762       0.35852784      -1.01398134      -0.08453616
Zr       1.77043222       8.48751901       8.34229190      -0.11096799      -0.50874209       0.05214361
Ti       3.33805889      -0.04936443      -0.23549879       0.40697950       0.48671144       0.61865997
Nb       5.10547438       1.81443512       1.54077743      -0.54342073      -0.69450057       0.11655895
Ti       3.40508253      -0.17087060       3.27842136      -0.10875234       0.52703565      -0.13144822
Ti       5.06862922       1.50945309       5.18810758      -0.63556492       0.20578817      -0.32933813
Nb       3.35933210      -0.01818979       6.75816768       0.07162791       0.57781529      -0.10264993
Ti       5.05444430       1.82332260       8.44324942      -0.49256927      -0.48532930      -0.03578736
Nb       3.31950984       3.30865018      -0.02574209       0.06719531       0.16636360      -0.11571234
Zr       5.17712103       5.05848160       1.71468107      -1.12910283      -0.15574034      -0.25990933
Ti       3.27711819       3.23314140       3.16195883       0.15255448       0.11467196       0.39010966
Zr       5.06996938       5.01333463       5.12267123      -0.65650344       0.19038235      -0.35137829
Ti       3.44843716       3.45795099       6.72558299      -0.45949069      -0.37025121      -0.02384659
Ti       5.03374523       5.08218459       8.46617458      -0.41317368      -0.13024548       0.22789620
Ti       3.14187057       6.93857518       0.12880622       0.67689520      -0.74575979      -0.46205336
Nb       5.04766844       8.42250901       1.66552840      -0.13417415       0.33483630      -0.37475514
Ti       3.44595625       6.85269853       3.36490099      -0.29962772      -0.20509234      -0.03707413
Zr       5.03702784       8.47557321       5.27420860      -0.09627363      -0.06738076      -0.80051255
Nb       3.36641955       6.80618273       6.79375451      -0.31732833      -0.46595037       0.00734965
Nb       5.15654917       8.49254466       8.36309343      -0.46564329       0.09773578       0.71983325
Ti       6.68274903       0.12626901      -0.13867831      -0.40967575      -0.35543495       0.30585974
Zr       8.51236226       1.62200692       1.63695824      -0.31511092       0.10064906      -0.04784495
Zr       6.82912205       0.04688487       3.40492287      -0.83847290      -0.23160225      -0.14865077
Nb       8.42506970       1.77669015       4.90058741       0.74927211      -0.71475178       1.07338023
Ti       6.82155610       0.00231655       6.74368893      -0.02638811       0.11126803      -0.06184343
Zr       8.51995248       1.68734455       8.40521062      -0.34540427       0.12193331      -0.35735202
Nb       6.77234339       3.16151355      -0.07453199      -0.42185402       0.64197892      -0.21814737
Zr       8.35819082       4.98124805       1.69559282       0.40263808      -0.06792426       0.38939312
Zr       6.82853717       3.27257605       3.55390540      -0.81022483       0.38371366      -0.52111244
Nb       8.40816228       5.28837590       5.14808944       0.55888188      -0.19521627      -0.16808923
Zr       6.73159192       3.22149594       6.69430124       0.10544030       0.40948445       0.47653022
Ti       8.53596145       5.10823457       8.42262270       0.15600315      -0.24748763      -0.57053006
Zr       6.90905625       6.55184243      -0.00297708      -0.98141032       0.40561426      -0.31995735
Zr       8.45925152       8.36579245       1.69587697      -0.37822509      -0.12194796       0.10049096
Ti       6.67207067       6.70298297       3.30524895       0.07469663       0.35712484       0.46032631
Nb       8.44740631       8.43149486       4.85979936       0.14367145      -0.07614205       0.45644671
Zr       6.74661671       6.71926860       6.85511517       0.14901194      -0.06921108      -0.12484041
Zr       8.46880398       8.49654466       8.48683081      -0.23520565      -0.01562781      -0.24244614
54
Lattice="10.13 0.0 0.0 0.0 10.13 0.0 0.0 0.0 10.13" Properties=species:S:1:pos:R:3:forces:R:3 group=TiZrNb_rattle10_b9 composition=TiZrNb energy=-470.4579772949219 pbc="T T T"
Zr       0.15431833       0.11572593       0.06659857      -1.02546847      -0.21846001      -0.88875353
Nb       1.65032068       1.68916040       1.87210739       0.72267169       0.84884638      -0.34248075
Zr       0.04648500       0.09832977       3.33258004      -0.15516701      -0.40010378       1.06432581
Ti       1.53366976       1.61163180       5.18494586       0.66605431       0.16090444      -0.45988673
Ti      -0.02296611       0.05535189       6.68732031      -0.19153966      -0.31482971       0.40099481
Zr       1.90842579       1.70274556       8.72837806      -0.73605365      -0.21200123      -1.74575627
Nb       0.04334150       3.22453784      -0.11640886      -0.46172071       0.78389120       0.47470155
Ti       1.67858463       5.23012480       1.58742555      -0.00782381      -0.82953429       0.13486198
Nb       0.14393404       3.37289653       3.27004992       0.20715782       0.32378352       0.43965328
Nb       1.84708463       5.05786942       4.96756532      -0.39982006       0.47147173       0.08613396
Zr       0.18827387       3.44954109       6.77680785      -0.78481263       0.02187726      -0.18585131
Ti       1.61896692       5.03746133       8.57765776       0.25430846       0.10671487      -0.52864683
Zr      -0.03383045       6.76954720      -0.10666616       0.18810979      -0.35101828      -0.24305885
Zr       1.61837193       8.45669035       1.68534091       0.57097799      -0.45691761       0.25503731
Nb       0.09060531       6.90679633       3.28615983      -0.17077959      -0.70523310       0.99308646
Nb       1.54754930       8.44304474       5.19861772       0.67372203      -0.27938193      -0.07671359
Nb      -0.18008415       6.81066076       6.83630831       0.39163613      -0.38980296      -0.57878810
Nb       1.77916764       8.51807698       8.33451135      -0.49057829      -0.35718000      -0.55954444
Zr       3.23968292      -0.10671970       0.04373540       0.85567302       0.21361139      -0.23001501
Zr       5.12533465       1.62287066       1.75164994      -0.76340896       0.83427107      -0.64148188
Ti       3.30411434       0.02003371       3.20383327      -0.06322932      -0.11760667       1.17276239
Zr       5.14143950       1.77458085       5.01550589      -0.82355940      -0.38336769       0.73735416
Ti       3.28331016       0.01037188       6.84829322       0.32762578      -0.25568041      -0.62265360
Nb       5.06482440       1.63474795       8.33331420       0.25832489       0.22399321      -0.05598357
Ti       3.31500146       3.29535313      -0.08951376       0.72393143       0.80927128       0.92710847
Zr       5.13476689       5.04952702       1.68691906      -0.26802096      -0.11989045       0.01517298
Nb       3.38866010       3.43199594       3.32810102      -0.53539759       0.04277239       0.15453598
Nb       4.98270592       5.03780185       5.12362706       0.26343873       0.43427125      -0.19619662
Ti       3.21276085       3.29580957       6.65747119       0.41920918       0.29627830       0.07911666
Zr       5.10029446       5.11671739       8.44563793      -0.06691745      -0.85278684      -0.63145483
Zr       3.46828697       6.76685799      -0.24830066      -0.53829515      -0.24636868       0.29350290
Zr       5.07471030       8.54034197       1.56277083      -0.30787641      -0.85626018       0.74000788
Ti       3.35733580       6.69070514       3.13766409       0.00394367       0.16052763       0.93094796
Nb       5.07904702       8.36995427       4.89075918      -0.61989361      -0.30387884       0.66151798
Ti       3.43077229       6.71257923       6.81784649      -0.42371520       0.19641992      -0.63761091
Ti       5.05493891       8.44593888       8.36551313       0.16333330       0.27532831      -0.57205600
Nb       6.50940964      -0.02213348       0.05826056       0.93536508       0.35951191      -1.28383291
Zr       8.40088823       1.74337128       1.76782811      -0.06490368       0.44302523      -0.43659520
Zr       6.69797872       0.03115229       3.45842972       0.36251777      -0.44706798       0.36506847
Nb       8.46376524       1.60124721       5.06214642      -0.07116294       0.46050185       0.55921322
Ti       6.67012620      -0.16197122       6.72974641       0.21542519       0.09689378       0.09795310
Ti       8.32667990       1.52146672       8.49720654      -0.14337981       0.17210184      -0.38173684
Nb       6.80409765       3.33408143      -0.13511097       0.01985273      -0.21293345      -0.12739034
Zr       8.41002527       5.10965587       1.91399449       0.27430511      -0.28385970      -0.73184764
Nb       6.60379836       3.34871535       3.31214881       0.51178622       0.44069842       0.46699652
Nb       8.49091635       4.82742453       4.70773985      -0.18419454       0.71865124       1.16720247
Ti       6.70611784       3.38054967       6.61005800       0.54644066       0.09655023       0.29078630
Ti       8.43178604       4.97835695       8.46650029       0.05289735      -0.27738291      -0.34404573
Zr       6.83792851       6.79049852      -0.13897015       0.04377675      -0.08346370      -0.20156264
Zr       8.46845150       8.53538191       1.56059019      -0.30792457      -0.15657710       0.28154045
Ti       6.74554856       6.90132439       3.26628180       0.00751161      -0.36860219       0.78888673
Nb       8.40975803       8.38466087       5.08514415       0.05945753      -0.27242979       0.19366939
Ti       6.83887023       6.65815540       6.78124594       0.05637203       0.14662950      -0.58993876
Ti       8.48602283       8.41589870       8.42858580      -0.17018215       0.61382109      -0.47825599
16
Lattice="6.753333333333334 0.0 0.0 0.0 6.753333333333334 0.0 -0.12145503506461855 0.0 6.753333333333334" Properties=species:S:1:pos:R:3:forces:R:3 group=TiZrNb_strain_shear_b0 composition=TiZrNb energy=-139.483642578125 pbc="T T T"
Nb      -0.03183379      -0.00132612      -0.01039271       0.08271496      -0.13932852       0.03970950
Ti       1.69029480       1.70232709       1.66969870      -0.24844222      -0.14463519      -0.06981286
Ti      -0.07467505      -0.00114220       3.35914315       0.02989321      -0.05831890      -0.00295835
Nb       1.55473753       1.66980956       5.04586240      -0.05246069      -0.10016686       0.13434789
Nb      -0.00900486       3.29699737       0.00179210       0.00951634       0.26824915      -0.00676447
Nb       1.67243772       5.07888621       1.72072300      -0.23849005       0.10836384      -0.20606989
Zr      -0.10095480       3.37061976       3.37873585      -0.00790647       0.06320068      -0.04352249
Zr       1.63998374       5.08124827       5.06131051      -0.30405265       0.12381680       0.13607910
Nb       3.40612874       0.03873821       0.00176839      -0.08046038      -0.09066547      -0.08181185
Zr       5.02333644       1.68220782       1.68403580       0.13228437      -0.06983521       0.03492246
Zr       3.32261747       0.01812321       3.36475363       0.05499411       0.00926048       0.08102791
Ti       4.97344665       1.67893310       5.05791653       0.08080091      -0.08559946       0.11398227
Zr       3.39117874       3.40026823       0.01782066      -0.01375011      -0.05200210      -0.07370968
Ti       4.97202883       5.07824961       1.68391772       0.29760641       0.07082390      -0.08933298
Ti       3.26086295       3.39675384       3.42713855       0.10882927      -0.06886505      -0.10301460
Ti       4.96899867       5.03614020       5.06511979       0.14892291       0.16570166       0.13692810
16
Lattice="6.753333333333334 0.0 0.0 0.0 6.753333333333334 0.0 -0.26339678020287766 0.0 6.753333333333334" Properties=species:S:1:pos:R:3:forces:R:3 group=TiZrNb_strain_shear_b0 composition=TiZrNb energy=-139.36070251464844 pbc="T T T"
Nb       0.01084903       0.02118116       0.01513257       0.08845546      -0.29210243      -0.02955061
Zr       1.65520717       1.76495673       1.72852685      -0.49362922      -0.03380691       0.00036796
Ti      -0.17945224      -0.00193470       3.34001639       0.17966875      -0.13580385       0.08358509
Ti       1.50605733       1.72853368       5.02735626      -0.38504016      -0.06659982       0.01231354
Ti      -0.05422263       3.42321348      -0.00291224       0.16106461       0.16033962       0.02345440
Ti       1.67308673       5.09853766       1.65276267      -0.52842075      -0.15910099       0.15604867
Nb      -0.13226932       3.39678733       3.39637362      -0.03516385       0.32961190      -0.07516351
Nb       1.49219128       5.04958624       5.04219875      -0.51270437      -0.03190397      -0.10873368
Zr       3.44356003      -0.06466087       0.00617906      -0.26682219      -0.04893677      -0.07359438
Nb       5.00513874       1.70658933       1.68305330       0.42270344       0.11332529       0.17626621
Zr       3.25083928      -0.05152996       3.37017500      -0.05898571      -0.09327169       0.02844396
Zr       4.82517108       1.69010682       5.09494598       0.52481508       0.10483131      -0.21253772
Zr       3.35698075       3.38147359       0.00283732       0.03665315       0.26272506      -0.01879424
Ti       4.97627396       5.09376420       1.70238103       0.47961864      -0.25108349       0.10164467
Nb       3.27201028       3.39920122       3.37974092      -0.01051062       0.27381760       0.00415825
Ti       4.86097011       5.07469254       5.04941751       0.39829746      -0.13204086      -0.06790837
16
Lattice="6.753333333333334 0.0 0.0 0.0 6.753333333333334 0.0 0.0 -0.23615907720217647 6.753333333333334" Properties=species:S:1:pos:R:3:forces:R:3 group=TiZrNb_strain_shear_b0 composition=TiZrNb energy=-139.29061889648438 pbc="T T T"
Zr      -0.02610988      -0.03690963      -0.04228075       0.04217904       0.16011864      -0.20687708
Zr       1.68464671       1.61286266       1.70712320      -0.31710973       0.24115260      -0.24151957
Nb      -0.01813260      -0.23061227       3.35317698       0.01199292       0.32698208       0.37535641
Nb       1.73463989       1.50557605       5.11634007      -0.27577871       0.20326248       0.05551893
Ti       0.00676854       3.38178116      -0.05051926       0.01796212      -0.02708098      -0.18470828
Nb       1.67743759       4.97108348       1.73168510      -0.15395968      -0.18150789      -0.34748432
Ti       0.02232033       3.25037910       3.37571288      -0.10978067      -0.05756045       0.31686544
Ti       1.72800289       4.90116159       5.03890781      -0.15813030      -0.13975257       0.22830418
Nb       3.39023707       0.02351875       0.00954798      -0.03240034      -0.00128666      -0.33410263
Ti       5.01181357       1.62459809       1.68727997       0.32866198       0.13018188      -0.09859386
Zr       3.38016886      -0.10218008       3.33989993       0.01183534      -0.00107372       0.37415969
Ti       5.01669734       1.54447778       5.04786754       0.30791473       0.01899590       0.10481957
Ti       3.43064870       3.40484113       0.02164194      -0.19775015      -0.03442116      -0.26999241
Zr       5.06107679       4.99262645       1.66939324       0.19940735      -0.30496946      -0.12624934
Zr       3.34485942       3.25004453       3.37874679       0.14667985      -0.00334366       0.27538419
Nb       5.03107715       4.91942963       5.06304200       0.17827603      -0.32969680       0.07911913
16
Lattice="6.753333333333334 0.0 0.0 0.0 6.753333333333334 0.0 0.32121700482335946 0.0 6.753333333333334" Properties=species:S:1:pos:R:3:forces:R:3 group=TiZrNb_strain_shear_b0 composition=TiZrNb energy=-139.24285888671875 pbc="T T T"
Ti       0.03450661      -0.01494691       0.01364322      -0.03715555       0.27776346       0.37823054
Nb       1.74192443       1.76614488       1.74042650      -0.40017790      -0.47879505      -0.38986605
Ti       0.10199012       0.02728005       3.38102888       0.13861874       0.09822026      -0.24287319
Nb       1.95988377       1.65871507       5.09262320      -0.54603523      -0.14749297       0.19361684
Ti       0.01440491       3.37181680      -0.01872624      -0.08253174      -0.23129581       0.35713378
Nb       1.80944135       5.04709956       1.68454183      -0.69635022       0.36678761      -0.13677782
Nb       0.15696329       3.33495468       3.36583669      -0.19737303      -0.15297344      -0.13976467
Zr       1.88555469       5.02902917       5.09241749      -0.38147849       0.29051048       0.04006146
Ti       3.38535838      -0.03425252      -0.03498439      -0.10577969       0.38421136       0.50366634
Ti       5.16834390       1.74028932       1.70688059       0.24398163      -0.23983948      -0.19327457
Zr       3.47448161       0.02770834       3.39186007       0.17333937       0.27563053      -0.29421908
Ti       5.30707020       1.65447860       5.11342191       0.31874442      -0.00046860      -0.00325889
Zr       3.36654156       3.37954372      -0.03798248       0.15339291      -0.42324537       0.29564336
Nb       5.09790447       5.07368066       1.74271021       0.61574113       0.20077915      -0.29884657
Zr       3.47871947       3.38515874       3.32692961       0.30995888      -0.32316458       0.02665359
Zr       5.28670507       5.09067313       5.14356770       0.49310479       0.10337245      -0.09612501
16
Lattice="6.8639801586289835 0.0 0.0 0.0 6.8639801586289835 0.0 0.0 0.0 6.8639801586289835" Properties=species:S:1:pos:R:3:forces:R:3 group=TiZrNb_strain_vol_b0 composition=TiZrNb energy=-139.22817993164062 pbc="T T T"
Nb      -0.01689667      -0.01269884       0.00699954      -0.05148542       0.36533993       0.21096520
Ti       1.73382005       1.71809460       1.72002444      -0.14913353       0.04156916      -0.15900201
Ti       0.00649312      -0.01611145       3.44464140       0.00047829       0.22528188      -0.24524793
Zr       1.71026657       1.73657535       5.18455080      -0.16650340       0.05396786      -0.00817965
Ti       0.02617579       3.46526918      -0.00557821      -0.12710837      -0.34244397       0.23527949
Nb       1.71052594       5.14310191       1.66752145      -0.07897871      -0.08350764       0.08128166
Nb       0.04326266       3.45426442       3.39322997      -0.09351714      -0.33943221      -0.22356601
Zr       1.69327517       5.14414245       5.19222812      -0.04315796      -0.10084753      -0.13360322
Nb       3.40276114      -0.04560369      -0.03165523       0.16972551       0.40250164       0.30944616
Ti       5.17023839       1.68302111       1.68300570       0.05136816       0.16032562      -0.10672538
Zr       3.42848482       0.03386945       3.44775705       0.03938305       0.18377796      -0.26986110
Ti       5.12329964       1.74322800       5.07229338       0.18630254       0.07207990       0.26145479
Nb       3.37662327       3.40987119      -0.00864209       0.22044975      -0.29112285       0.26916829
Zr       5.15392097       5.13727662       1.70183239       0.06069363      -0.11205766      -0.06587120
Ti       3.44188599       3.42293688       3.41620170      -0.03213657      -0.13696785      -0.21228796
Zr       5.17599410       5.11906434       5.14290742       0.01362022      -0.09846430       0.05674876
16
Lattice="7.126138749160254 0.0 0.0 0.0 7.126138749160254 0.0 0.0 0.0 7.126138749160254" Properties=species:S:1:pos:R:3:forces:R:3 group=TiZrNb_strain_vol_b0 composition=TiZrNb energy=-136.97711181640625 pbc="T T T"
Zr      -0.00410791      -0.00539095      -0.00271664       0.01019335       0.25189593       0.22858195
Ti       1.74552483       1.81923233       1.81188167       0.23459570       0.02200858      -0.19033113
Zr       0.00150080       0.01697873       3.53136072      -0.00329548       0.16734980      -0.14535734
Ti       1.80224376       1.73777320       5.32053962       0.18447921       0.08479373       0.12993829
Nb       0.01169008       3.56277807      -0.00106848      -0.00721499      -0.22640146       0.22401300
Nb       1.78201592       5.37815838       1.79522794       0.33583844      -0.14444293      -0.11408133
Zr       0.11048454       3.56821705       3.55153222      -0.14514974      -0.15410870      -0.19075571
Zr       1.83319803       5.33384662       5.36744121       0.23044799      -0.06594431       0.05884730
Nb       3.62016561      -0.01909948      -0.05898976      -0.00724858       0.22722530       0.23670313
Nb       5.37403007       1.77247477       1.78027025      -0.30358142       0.12408145      -0.10648188
Ti       3.54165012      -0.01829139       3.60076671       0.09407407       0.12846795      -0.27143475
Ti       5.35174541       1.79291832       5.33254478      -0.17299291       0.04957820       0.13963781
Ti       3.54826012       3.57555185      -0.01684686       0.08608194      -0.11136061       0.30968457
Nb       5.30117709       5.38123937       1.77282829      -0.27419820      -0.14006153      -0.08072047
Ti       3.55199180       3.56215405       3.51784547       0.05903782      -0.05959819      -0.24217975
Zr       5.38928290       5.35341448       5.37929040      -0.32106721      -0.15348324       0.01393633
16
Lattice="6.938242731017797 0.0 0.0 0.0 6.938242731017797 0.0 0.0 0.0 6.938242731017797" Properties=species:S:1:pos:R:3:forces:R:3 group=TiZrNb_strain_vol_b0 composition=TiZrNb energy=-138.87716674804688 pbc="T T T"
Zr       0.03617736      -0.04728743       0.00139593      -0.14233567      -0.18518929       0.21957383
Ti       1.68220291       1.71803423       1.77178489       0.12166417      -0.06590968       0.04277492
Nb       0.00449576       0.00502678       3.49215892      -0.03510483      -0.31029558      -0.29174104
Zr       1.75500583       1.73354655       5.23463185       0.03799962      -0.08297110      -0.24899453
Zr      -0.02043653       3.40226613      -0.02882395      -0.00874764       0.34586516       0.28147542
Nb       1.73362616       5.21597001       1.75255060       0.07625319       0.05559006       0.11832746
Ti      -0.02202557       3.51881205       3.49236167      -0.00493090       0.16728958      -0.26249692
Ti       1.73220471       5.23919858       5.18899851       0.14600828       0.01914857      -0.05263123
Nb       3.41911867       0.02378652       0.05006915       0.11582011      -0.35778618       0.22073251
Ti       5.16762662       1.70901739       1.75787779       0.00175663      -0.07539986       0.00193888
Ti       3.47513632       0.01757739       3.43550749      -0.03620504      -0.33602685      -0.18806243
Zr       5.19537869       1.69647759       5.18348823      -0.09394594      -0.05532154      -0.09704910
Nb       3.44407193       3.41496794       0.00696672       0.05106451       0.36538672       0.25752389
Nb       5.20746595       5.19768182       1.68781587      -0.15638849       0.09080886       0.19777147
Zr       3.45659846       3.43874351       3.41097614       0.02228080       0.30058479      -0.12330145
Ti       5.15699832       5.18674564       5.21672276      -0.09518869       0.12422632      -0.07584171
16
Lattice="6.788618081878305 0.0 0.0 0.0 6.788618081878305 0.0 0.0 0.0 6.788618081878305" Properties=species:S:1:pos:R:3:forces:R:3 group=TiZrNb_strain_vol_b0 composition=TiZrNb energy=-139.29458618164062 pbc="T T T"
Ti       0.06754507       0.05817442       0.01520653      -0.41818869      -0.40648827       0.02834161
Zr       1.68045513       1.71169652       1.66840662       0.19983400      -0.46720988       0.27382439
Ti       0.02827607       0.01167837       3.42636095      -0.27950245      -0.18302000      -0.06659670
Zr       1.67062115       1.71525627       5.16279010       0.19882044      -0.42043769      -0.34787825
Zr      -0.02357979       3.42068123       0.00650782      -0.27507505       0.30185670      -0.00358101
Nb       1.73903798       5.12189192       1.73114586       0.02441230       0.40883687       0.02740198
Zr       0.05606631       3.38516156       3.37601774      -0.38470525       0.28273544       0.07859467
Ti       1.68114577       5.10200122       5.04601614       0.17045772       0.30636138       0.00979165
Ti       3.38167953      -0.02966574       0.00283039       0.29786500      -0.14680733      -0.00842839
Nb       5.06093333       1.69378755       1.72160196      -0.05385587      -0.44934124       0.04925568
Nb       3.40842391      -0.01566914       3.42337898       0.30434841      -0.13323712       0.02108246
Ti       5.11499414       1.71718696       5.09614318      -0.20793356      -0.33462238      -0.10963160
Zr       3.35585135       3.40397129      -0.02516351       0.40771526       0.32506257      -0.00767049
Ti       5.12654628       5.11249660       1.71235676      -0.13447310       0.35048556       0.08514164
Nb       3.43876072       3.44448932       3.36179589       0.24721929       0.11455890       0.13762815
Nb       5.12172707       5.10630527       5.12551824      -0.09693872       0.45126638      -0.16727574
16
Lattice="6.753333333333334 0.0 0.0 0.0 6.753333333333334 0.0 0.0 0.0 6.753333333333334" Properties=species:S:1:pos:R:3:forces:R:3 group=TiZrNb_md600_b0 composition=TiZrNb energy=-139.04112243652344 pbc="T T T"
Nb       0.16986728      -0.12340216      -0.00355207       0.14885233       0.10672018      -0.11482219
Zr       2.08791666       1.93822640       1.55152321      -0.61970645      -0.91777200       0.39421472
Ti       0.09946469      -0.10044635       3.47545995       0.42276803       0.05996218      -0.24714060
Nb       1.78038706       1.57677057       5.17190580       0.23349714      -0.17600375      -0.31462041
Ti       0.00147501       3.36522135      -0.20994769       0.35078564      -0.18143776       0.52762401
Zr       1.88866394       5.03930857       1.57690981       0.01165989       0.07670030       0.24850926
Zr       0.02878229       3.35477380       3.46389671       0.37914711      -0.24792600      -0.31746435
Nb       1.92832591       4.84680684       5.15297667      -0.30232334       0.48367125      -0.32077435
Nb       3.72199682      -0.29181974      -0.13197510      -0.41578525       0.31072712       0.37425244
Ti       5.25738725       1.51562758       1.52271143       0.12445404       0.25204706       0.15327395
Zr       3.72964142      -0.14860085       3.29500869      -0.44403020       0.15364002      -0.06578791
Zr       5.16027094       1.59035655       5.09778190       0.04590437      -0.13760048      -0.10235259
Ti       3.53462938       3.25965455      -0.15962123       0.51216310       0.38810721       0.03274059
Nb       5.42699774       4.87188742       1.61628464      -0.53862810       0.06326832      -0.18926597
Ti       3.61760737       3.45701581       3.47131084      -0.14862919      -0.36691993      -0.27425289
Ti       5.18724786       4.97333513       5.04857524       0.23987085       0.13281623       0.21586587
16
Lattice="6.753333333333334 0.0 0.0 0.0 6.753333333333334 0.0 0.0 0.0 6.753333333333334" Properties=species:S:1:pos:R:3:forces:R:3 group=TiZrNb_md600_b0 composition=TiZrNb energy=-138.9615478515625 pbc="T T T"
Nb       0.29685817      -0.12751406       0.02306932      -0.03446455      -0.47450358      -0.17724887
Zr       1.82432024       1.45702298       1.51494013       0.82893777       0.58148825      -0.05019635
Ti       0.27862847      -0.01667849       3.17407227      -0.30943072      -0.66357052       0.43551078
Nb       2.02506037       1.46687509       4.97694414       0.00564536       0.20270640       0.44327700
Ti       0.43991992       3.25707307       0.05937956      -0.22060674       0.34479305      -0.51579928
Zr       2.19524893       4.89779405       1.68413926      -0.74770147      -0.27023590      -0.12990315
Zr       0.36189658       3.16797280       3.54295305      -0.31413984       0.44602233      -0.30067271
Nb       1.92880483       5.12860405       5.02601147       0.21922465      -0.33651519       0.11276193
Nb       3.81469897      -0.20603676      -0.00248035      -0.27753466       0.13871261      -0.41951859
Ti       5.36941243       1.56353651       1.50532854      -0.08447768       0.30929226       0.07916591
Zr       3.71505771      -0.02409199       3.17470151       0.44432819      -0.34599483       0.55874240
Zr       5.40490909       1.52080179       5.13661362       0.00434884       0.19214971      -0.03001067
Ti       3.74416900       3.38105841      -0.19993199      -0.32214677      -0.33901113      -0.15354429
Nb       5.26737598       4.73955671       1.52220691       0.67954797       0.05617610       0.39955163
Ti       3.62669486       3.06880374       3.33713327       0.26115111       0.42830446       0.20137835
Ti       5.51844482       5.07843083       5.19408815      -0.13268135      -0.26981390      -0.45349413
16
Lattice="6.753333333333334 0.0 0.0 0.0 6.753333333333334 0.0 0.0 0.0 6.753333333333334" Properties=species:S:1:pos:R:3:forces:R:3 group=TiZrNb_md600_b0 composition=TiZrNb energy=-138.82757568359375 pbc="T T T"
Nb       0.59585521      -0.06583597      -0.08601062      -0.24388644      -0.85908449      -0.02205955
Zr       2.11620068       1.65310763       1.44135845       0.45554841      -0.51359916       0.91311496
Ti       0.37718694      -0.19583954       3.34915407       0.20779240       0.05672776      -0.01934459
Nb       2.19375011       1.49142202       5.15174937      -0.08951984       0.12023815      -0.71577084
Ti       0.64762297       3.28504859       0.07605087      -0.69524026       0.28928664      -0.43660179
Zr       2.16510213       5.01463050       1.77226093      -0.11649153      -0.44354838      -0.45974678
Zr       0.15608782       3.13634140       3.30002898       0.74078918      -0.19222708      -0.35255277
Nb       2.26656962       4.66814803       4.98237126      -0.09269962       0.17365450       0.12734312
Nb       3.87843165      -0.28475280      -0.29736160       0.03200236      -0.39184070       0.40049034
Ti       5.45801000       1.26285602       1.50174207       0.19158159       0.28834039      -0.07423134
Zr       3.88367392      -0.25276884       3.29013377       0.13631767       0.02461212       0.33297467
Zr       5.56717290       1.48537785       5.17877441       0.25592896      -0.01190710      -0.10022973
Ti       3.95512054       3.12918389      -0.08814471      -0.05681067       0.50772679       0.00289237
Nb       5.37110094       4.83702194       1.50296095       0.51881975       0.03810775      -0.15567783
Ti       4.01216622       2.93920038       3.28504738      -0.42250812       0.51446187       0.10672177
Ti       5.90353061       4.78908272       5.05731981      -0.82162386       0.39905104       0.45267811
16
Lattice="6.753333333333334 0.0 0.0 0.0 6.753333333333334 0.0 0.0 0.0 6.753333333333334" Properties=species:S:1:pos:R:3:forces:R:3 group=TiZrNb_md600_b0 composition=TiZrNb energy=-138.78756713867188 pbc="T T T"
Nb       0.55001020      -0.09474525      -0.23570907       0.13339686      -0.58522522       0.51152223
Zr       2.22661350       1.77145438       1.46488548       0.15981258      -1.00548089       0.37280065
Ti       0.34657637      -0.21769614       3.44860115       0.38535553      -0.11599125      -0.26458859
Nb       2.25545287       1.56117393       5.18094629      -0.20649511       0.00728172      -0.53597558
Ti       0.52436027       3.32831698      -0.00353708      -0.14359705      -0.15659454       0.04899159
Zr       2.16829883       4.98800585       1.78977968      -0.31625110       0.02230178      -0.69454443
Zr       0.30921650       3.01197249       3.26939651       0.12771207       0.31769133      -0.01909244
Nb       2.29295634       4.66245450       4.99491503      -0.53696299       0.08551770       0.23395219
Nb       3.91543593      -0.36392083      -0.47884514      -0.26295125       0.05746583       1.34800172
Ti       5.46376777       1.26724174       1.55828968       0.08513784       0.13257991      -0.17892559
Zr       3.90877184      -0.36170011       3.40211354       0.01006627       0.45687428      -0.28445834
Zr       5.56267281       1.47434118       5.12158807       0.12427661       0.38794011      -0.00799641
Ti       4.04380856       3.21752391      -0.03064440      -0.25101066       0.02614859      -0.11290659
Nb       5.35832925       4.82250292       1.52051489       0.73387927       0.24538997       0.09141448
Ti       3.91960054       3.10294446       3.36957022       0.10821387       0.05165643      -0.03522994
Ti       5.73699656       4.75675495       5.18921716      -0.15058324       0.07244416      -0.47296500
16
Lattice="6.753333333333334 0.0 0.0 0.0 6.753333333333334 0.0 0.0 0.0 6.753333333333334" Properties=species:S:1:pos:R:3:forces:R:3 group=TiZrNb_md1400_b1 composition=TiZrNb energy=-139.39122009277344 pbc="T T T"
Ti       0.00000000       0.00000000       0.00000000      -0.21014570      -0.23303711      -0.00586932
Zr       1.68833333       1.68833333       1.68833333      -0.47236478       0.06539923       0.06538838
Ti       0.00000000       0.00000000       3.37666667      -0.20903185      -0.23521525       0.00633418
Zr       1.68833333       1.68833333       5.06500000      -0.49750674       0.07178959      -0.07179557
Ti       0.00000000       3.37666667       0.00000000      -0.20903198       0.23522528      -0.00632291
Nb       1.68833333       5.06500000       1.68833333      -0.46665573      -0.09370736       0.09370243
Nb       0.00000000       3.37666667       3.37666667      -0.34536982       0.30517581      -0.02415418
Nb       1.68833333       5.06500000       5.06500000      -0.47077280      -0.09436914      -0.09437752
Zr       3.37666667       0.00000000       0.00000000       0.35235313      -0.28368610       0.05318862
Ti       5.06500000       1.68833333       1.68833333       0.32735088       0.11430688       0.11431907
Zr       3.37666667       0.00000000       3.37666667       0.35937184      -0.29741138      -0.05143727
Nb       5.06500000       1.68833333       5.06500000       0.46994430       0.09727775      -0.09728997
Zr       3.37666667       3.37666667       0.00000000       0.35937113       0.29741633       0.05144109
Ti       5.06500000       5.06500000       1.68833333       0.32579720      -0.12286271       0.12284670
Nb       3.37666667       3.37666667       3.37666667       0.34989712       0.29728669      -0.03239518
Ti       5.06500000       5.06500000       5.06500000       0.33679405      -0.12358858      -0.12357855
16
Lattice="6.753333333333334 0.0 0.0 0.0 6.753333333333334 0.0 0.0 0.0 6.753333333333334" Properties=species:S:1:pos:R:3:forces:R:3 group=TiZrNb_md1400_b1 composition=TiZrNb energy=-137.8637237548828 pbc="T T T"
Ti       0.05112023      -0.05820141       0.09792587      -0.29236627      -0.10475975      -0.11588659
Zr       1.92303281       1.58063581       1.80421711      -0.44963914       0.27686340      -0.39387211
Ti       0.01628685       0.20728601       3.58832795      -0.52377409      -0.25523302      -0.28033993
Zr       2.00769344       1.62753115       5.09563344      -0.51786864       1.14371145       0.46992719
Ti       0.22966894       3.72349774       0.25733302       0.03959196      -0.76015508      -1.18318236
Nb       1.53953260       5.04792942       1.93405174       0.59823316       0.52093482       0.32121179
Nb       0.37108330       3.14786845       3.56326157      -0.70844102       0.40276855      -0.21761417
Nb       1.45082795       5.13806319       4.96107097       0.50715673      -0.44093120       0.13103041
Zr       3.25250202      -0.08956450      -0.08969209       1.29504502      -0.39711267       0.92420202
Ti       5.45600491       1.92802862       1.51964354      -0.10943517      -0.99324334       0.31363338
Zr       3.51555781      -0.03869281       3.52660013       0.95900095      -0.16398847      -0.81831032
Nb       5.37950141       1.92085134       5.48210440      -0.16340905      -0.26096767      -0.55684733
Zr       3.45081762       3.67690032       0.18548670      -0.02016234      -0.23295249      -0.59384519
Ti       5.38762091       4.84544468       1.95087206       0.38128513       1.67608905      -0.32645589
Nb       3.91846257       3.35352785       3.09916632      -1.82772517      -0.72680283       1.60077536
Ti       5.08182579       4.87274328       4.89958309       0.83250797       0.31577957       0.72557378
16
Lattice="6.753333333333334 0.0 0.0 0.0 6.753333333333334 0.0 0.0 0.0 6.753333333333334" Properties=species:S:1:pos:R:3:forces:R:3 group=TiZrNb_md1400_b1 composition=TiZrNb energy=-137.89913940429688 pbc="T T T"
Ti       0.05090934       0.02707424       0.35345836       0.58209580       0.13798426      -0.58178318
Zr       1.86734936       1.75006607       1.90557974       0.05204566       0.02829637       0.60110509
Ti       0.25051649      -0.07344425       3.14983163       0.07549417      -0.43974161       0.97296000
Zr       1.86184069       1.72613100       5.54228618      -0.17715496      -0.62362128      -1.45116401
Ti       0.39622845       3.29000161       0.27322433      -1.41708946       0.92373323       0.03380582
Nb       2.10244281       4.96782003       1.51415856      -0.73028034       0.21719632       0.89483482
Nb       0.13382879       3.39861675       3.61431669       0.87978476       1.49403214      -1.15053189
Nb       1.94100920       4.87918056       5.25421960      -0.64576936       0.65784520      -0.18754268
Zr       3.67972966       0.21765650       0.23204265       0.07774222      -0.10858676      -0.78223699
Ti       5.18079918       1.80836066       2.06984228       0.47027373      -0.06525533      -0.47000462
Zr       3.47610730      -0.11800925       3.68777893       0.28126919       0.00656296      -0.07725286
Nb       5.60207560       1.84298278       4.89225253      -0.70606625      -1.33021021       1.32271194
Zr       3.86846480       3.42289144      -0.03640214       0.57449102       0.03346902       0.37455919
Ti       5.12503509       5.42960799       1.67049824       0.54284543      -1.56542635       0.94997871
Nb       3.63669398       3.32700443       3.52721867      -0.08945303       0.76834118       0.01222035
Ti       5.47863057       5.23941302       5.30179375       0.22977148      -0.13461943      -0.46166027
16
Lattice="6.753333333333334 0.0 0.0 0.0 6.753333333333334 0.0 0.0 0.0 6.753333333333334" Properties=species:S:1:pos:R:3:forces:R:3 group=TiZrNb_md1400_b1 composition=TiZrNb energy=-137.025634765625 pbc="T T T"
Ti       0.17767306      -0.43527675       0.21784064       0.19075496       1.81606996      -0.07035467
Zr       1.69377960       1.69989483       2.01488201       0.70933294      -0.44051805      -1.44934058
Ti       0.03106098      -0.34193545       3.76760493       1.03527427       1.63890743      -0.63231927
Zr       1.60175517       1.72065402       5.09767531       0.53317469      -0.04857586       1.00842118
Ti       0.05620023       4.10483707       0.21943765       0.74518305      -2.28882599      -0.55938894
Nb       2.16911592       5.08916577       1.85021504      -0.02618529       0.26826230      -0.01270017
Nb       0.39943744       3.65005619       3.26473874      -0.51895785      -1.10159588       0.81855416
Nb       1.83197595       4.87739865       4.89914751       1.27648616       0.70463085       1.39334214
Zr       3.83978183       0.11071475       0.18291382      -0.36379322      -0.22081490      -0.09536624
Ti       5.79413518       1.66299298       1.88286467      -0.87663299      -0.01631579       0.00178404
Zr       3.70971028       0.17501531       3.56842642      -0.02080798       0.23989287       0.02246243
Nb       5.71526472       1.91694897       5.73536037      -0.28256679      -0.27224734      -1.26573944
Zr       3.79953250       3.55599914       0.12525349      -0.64122283      -0.46543556       0.03096516
Ti       5.30661954       4.83362674       2.21799786      -1.13839567       1.23762119      -1.50366879
Nb       3.85106999       3.09566294       3.47746159      -0.46535760      -0.09663457       0.33556014
Ti       5.11207374       5.06888569       4.81312220      -0.15628579      -0.95442039       1.97778857
16
Lattice="6.69 0.0 0.0 0.0 6.69 0.0 0.0 0.0 6.69" Properties=species:S:1:pos:R:3:forces:R:3 group=Ti2ZrNb_rattle05_b0 composition=Ti2ZrNb energy=-136.49267578125 pbc="T T T"
Nb      -0.01951857       0.08662389       0.03567266       0.22508268      -0.12946890       0.03357986
Ti       1.74515354       1.75154917       1.62721511      -0.23164535      -0.38189036       0.13999644
Ti       0.07201810      -0.06166770       3.39030121      -0.01869637       0.25307113      -0.17138228
Nb       1.64445528       1.68607781       4.99395482      -0.05442990      -0.24680752       0.10387625
Ti       0.00919528       3.24731455       0.03192690       0.05714697       0.09343844      -0.08216475
Zr       1.64093540       4.98847871       1.69399724      -0.14691442       0.35587066      -0.26674360
Ti       0.04506861       3.37338449       3.35874774      -0.10106349      -0.24732953      -0.09265542
Ti       1.71089229       4.89552163       5.01157810      -0.28287095       0.50290155       0.35354555
Ti       3.29895271       0.04235325       0.02446494      -0.03225294      -0.06580496       0.05556189
Nb       5.04373801       1.68128559       1.66025040       0.12578593      -0.22532964       0.08243366
Ti       3.39052764      -0.03454982       3.34453198      -0.18445522       0.21285689      -0.19977722
Zr       4.95053377       1.69774470       5.02353859       0.22625859      -0.17803453      -0.01197208
Nb       3.32073209       3.39579917       0.06204643       0.00525936      -0.15345483      -0.07010034
Ti       5.07963455       4.93569930       1.60337975       0.04324962       0.38383830      -0.00373928
Zr       3.33407999       3.43631695       3.34235790       0.06580928      -0.28653464      -0.16400129
Zr       4.98696107       5.04419224       5.00183188       0.30373618       0.11267792       0.29354250
16
Lattice="6.69 0.0 0.0 0.0 6.69 0.0 0.0 0.0 6.69" Properties=species:S:1:pos:R:3:forces:R:3 group=Ti2ZrNb_rattle05_b0 composition=Ti2ZrNb energy=-136.5210418701172 pbc="T T T"
Zr       0.04038256       0.04264211       0.01881116       0.24215357       0.21801916      -0.02189388
Ti       1.65663596       1.69598652       1.71074976       0.09512661       0.15617070      -0.08526316
Ti      -0.00704551       0.03166098       3.36664372       0.28466737       0.19714694      -0.01703756
Ti       1.73879630       1.68259138       4.94728626      -0.18312615       0.20567870       0.09351693
Ti       0.04123989       3.36053004       0.02411586       0.13553187      -0.16871043      -0.09612540
Ti       1.71174741       5.00612939       1.68385540      -0.06073771      -0.10462498       0.01115319
Ti      -0.01954147       3.40326585       3.32745709       0.34714299      -0.38017994       0.04606063
Nb       1.71753493       4.99412894       5.03216475      -0.29381528      -0.10169022      -0.17246483
Ti       3.36046726      -0.03605027      -0.10162524      -0.17035818       0.34760326       0.27910388
Ti       5.04111283       1.71224707       1.63508775      -0.08943671       0.18190819      -0.04835843
Zr       3.41156669      -0.00175263       3.31604684      -0.40795007       0.32260999      -0.17902328
Nb       4.99778365       1.74263900       5.01789212       0.15428676       0.12428607       0.02602533
Nb       3.29117778       3.42391638      -0.07057856      -0.13192408      -0.48847550       0.30425075
Zr       5.06304863       5.02649337       1.70365136      -0.00492661      -0.18357658      -0.30409676
Nb       3.31775943       3.29519382       3.30639427      -0.20789354      -0.14903228      -0.13440350
Zr       4.99371352       5.01855745       4.93381293       0.29125932      -0.17713326       0.29855618
16
Lattice="6.69 0.0 0.0 0.0 6.69 0.0 0.0 0.0 6.69" Properties=species:S:1:pos:R:3:forces:R:3 group=Ti2ZrNb_rattle05_b0 composition=Ti2ZrNb energy=-136.53231811523438 pbc="T T T"
Nb      -0.01962437      -0.02074633      -0.03057861      -0.08791551      -0.11102292      -0.04034514
Zr       1.69378407       1.73962905       1.65173075       0.07595619      -0.37087753       0.26063073
Zr      -0.02459018       0.04549509       3.35067671      -0.15981060      -0.26307142       0.16233161
Ti       1.70666194       1.66426841       5.01233872       0.04511579      -0.14974813      -0.11138669
Zr       0.06597827       3.35761328      -0.00991318      -0.18005779       0.16342625      -0.12225588
Ti       1.68857703       5.09436652       1.69676958       0.05389002      -0.03320516       0.18027315
Ti       0.00589796       3.34417542       3.30311512      -0.03866452       0.15502834       0.25425696
Ti       1.72027172       5.00139726       5.04847058       0.02806546       0.17601152      -0.26409531
Ti       3.33456885      -0.05028852       0.07546901       0.21403635       0.04149432      -0.23717143
Nb       5.03749327       1.72214150       1.64379355      -0.10364352      -0.36204436       0.22085670
Ti       3.35164686      -0.02265545       3.39379920       0.23701169      -0.03871205       0.05652109
Nb       5.00292063       1.73045535       5.04813384      -0.04612687      -0.38967872      -0.17061931
Zr       3.32373713       3.31802581       0.02773243       0.13370204       0.26298445      -0.15028198
Ti       4.99719009       4.95536156       1.68753615      -0.00418626       0.28853306       0.11576847
Nb       3.42082216       3.30133329       3.35895691      -0.06555028       0.31169066       0.15807863
Ti       5.02474174       4.93178698       5.12098451      -0.10182228       0.31919155      -0.31256175
16
Lattice="6.69 0.0 0.0 0.0 6.69 0.0 0.0 0.0 6.69" Properties=species:S:1:pos:R:3:forces:R:3 group=Ti2ZrNb_rattle05_b0 composition=Ti2ZrNb energy=-136.32839965820312 pbc="T T T"
Ti      -0.07578270       0.05261132       0.00468734       0.23489013      -0.10425545      -0.20725599
Nb       1.63102765       1.67161263       1.66224064       0.44965017      -0.40674055      -0.02320095
Ti       0.02133602       0.02063607       3.34570153      -0.04221238      -0.18242468       0.22048354
Ti       1.60225542       1.64626306       5.00972253       0.27620873      -0.10683534       0.04914729
Zr       0.11119820       3.34542833       0.05274092      -0.34641835      -0.01911223      -0.60558259
Zr       1.71100437       5.00061160       1.60656770       0.26203057       0.59808660       0.13635121
Zr       0.00511197       3.38606234       3.25869186      -0.22008520       0.14885665       0.71362245
Ti       1.67774658       4.96450582       5.10352967       0.15959974       0.42951247      -0.28232139
Nb       3.37837427       0.05804162      -0.01420232      -0.13963683       0.05436400      -0.34390366
Zr       5.02284312       1.69197098       1.70097955      -0.42880118      -0.15287492       0.05730005
Ti       3.23102609       0.08800187       3.39475697       0.17982802      -0.22677669       0.15965277
Ti       5.05305703       1.67311335       4.99601686      -0.26197001      -0.05178208      -0.07677537
Ti       3.40096436       3.40213954      -0.07174662      -0.00847317      -0.27885523      -0.05356710
Nb       5.02788026       5.14387695       1.61024701      -0.31193432       0.04572270       0.24952406
Nb       3.22279347       3.33845236       3.33694614       0.37622362       0.04386004       0.41510177
Ti       5.01092903       5.03316350       5.13667846      -0.17889975       0.20925456      -0.40857613
16
Lattice="6.69 0.0 0.0 0.0 6.69 0.0 0.0 0.0 6.69" Properties=species:S:1:pos:R:3:forces:R:3 group=Ti2ZrNb_rattle10_b1 composition=Ti2ZrNb energy=-135.98471069335938 pbc="T T T"
Nb      -0.02902956       0.02142453       0.02751580       0.01875967       0.14208686       0.17948094
Ti       1.81946926       1.87614402       1.69653708      -0.85073376      -1.08538854      -0.47800893
Ti       0.04953833      -0.08034043       3.49418484      -0.16477261       0.50215656      -0.64363551
Ti       1.71134915       1.66578921       5.18182290      -0.16607872      -0.10672718      -0.10859548
Zr       0.08771530       3.45830989       0.03967768      -0.76516807      -0.70795631      -0.21228363
Ti       1.64904313       4.91381210       1.42746839       0.23870149       0.67164749       0.64876926
Nb      -0.07708339       3.12833024       3.31848422      -0.17856281       0.16674806       0.05800083
Zr       1.70375327       4.98484237       4.81580045      -0.20934701      -0.07252555       0.85048968
Nb       3.25728045      -0.03249815       0.00712628       0.41419289      -0.03041953       0.16078463
Nb       5.00482503       1.54075978       1.63845686       0.24642198      -0.01355641       0.10923170
Zr       3.26164825      -0.02119525       3.37759200       0.24536949       0.30329573      -0.26443964
Ti       5.07348300       1.58794592       5.00478935      -0.11023887       0.02488889       0.18476592
Ti       3.49397542       3.17043514       0.12199120       0.20107114       0.48492560      -0.37829912
Ti       5.05843692       5.08329808       1.85858017       0.01751863      -0.13441178      -0.37553543
Zr       3.12430879       3.34516690       3.30658540       1.30280089      -0.09643739       0.28607118
Ti       5.09117598       5.01420410       5.05653196      -0.23993400      -0.04832650      -0.01679618
16
Lattice="6.69 0.0 0.0 0.0 6.69 0.0 0.0 0.0 6.69" Properties=species:S:1:pos:R:3:forces:R:3 group=Ti2ZrNb_rattle10_b1 composition=Ti2ZrNb energy=-135.8403778076172 pbc="T T T"
Zr      -0.09408447      -0.09687931       0.13379172       0.25753352       0.35401762      -0.08640641
Ti       1.61213688       1.66134414       1.72742297       0.29414400       0.03668719       0.03386048
Nb       0.07325948      -0.05859368       3.41100671      -0.08230519       0.21708332      -0.33739209
Ti       1.73496727       1.63422168       4.86180529      -0.39587241       0.06406981       0.30718860
Ti      -0.14725461       3.16087833       0.04890624       0.51845872      -0.10187481      -0.05783213
Ti       1.71458709       4.88091558       1.64952535       0.03937641       0.19440591       0.18051222
Ti       0.04869810       3.42268655       3.24922130       0.03672129      -0.59965605       0.11582761
Zr       1.66762259       4.86860595       5.00407867      -0.44033635       0.34627050       0.14101189
Ti       3.30624502      -0.08018597      -0.00944143      -0.01732863       0.38349909       0.37981132
Nb       5.11636314       1.70042783       1.82336054      -0.38068432      -0.26184323      -0.00573884
Ti       3.25154054       0.07534257       3.40373847       0.27322099      -0.20963942      -0.56323242
Nb       4.90893188       1.59126236       4.94593011       0.49682021      -0.29454187       0.06084186
Zr       3.44072203       3.36965138      -0.08442099      -0.56970072      -0.84186715       1.11679518
Ti       5.10485614       4.84875512       1.70117955      -0.31319112       0.49291921       0.25186688
Nb       3.47179617       3.45334615       3.53873887      -0.87370723      -1.03944921      -1.73354292
Zr       4.93523440       4.86204225       4.98814676       1.15685046       1.25991893       0.19642842
16
Lattice="6.69 0.0 0.0 0.0 6.69 0.0 0.0 0.0 6.69" Properties=species:S:1:pos:R:3:forces:R:3 group=Ti2ZrNb_rattle10_b1 composition=Ti2ZrNb energy=-136.11114501953125 pbc="T T T"
Zr       0.16467108      -0.10500936      -0.09739085      -0.99063623       0.06053704       0.48172513
Ti       1.73262359       1.58728514       1.59684521      -0.03776605       0.70958042       0.43658805
Nb       0.10907071       0.17918001       3.36919922      -0.73426497      -0.71923739      -0.62251955
Zr       1.61812478       1.61563981       4.93053129       0.30123425       0.97076696      -0.03736538
Nb       0.07478565       3.32253768       0.12409278      -0.38123530      -0.04881457      -0.06587950
Zr       1.77515276       5.14175825       1.78232873      -0.06282020      -0.84263074       0.18461376
Ti      -0.23925604       3.35337642       3.37585712       0.50393426       0.03732209      -0.11866681
Nb       1.76771058       4.92469909       4.98530324      -0.10156959      -0.36539018      -0.22616398
Zr       3.29139490       0.08620252      -0.07180787       0.93259799      -0.30376554       0.20935757
Ti       5.06229411       1.71724392       1.71884304      -0.11045147      -0.05284876      -0.08439098
Ti       3.35682569       0.00353722       3.41066695       0.44635412       0.02263686      -0.18098727
Ti       5.05620539       1.51164555       4.94789201      -0.02128612       0.51137036       0.14411260
Ti       3.38599831       3.29540903      -0.08127028       0.26069784       0.12551734       0.18542276
Ti       5.00460635       5.02044200       1.75509628       0.01383020      -0.03774994      -0.10374282
Ti       3.38729041       3.28585722       3.44340445       0.17311335       0.04134917      -0.24539138
Nb       5.10733605       4.96172771       4.95385753      -0.19173208      -0.10864305       0.04328770
16
Lattice="6.69 0.0 0.0 0.0 6.69 0.0 0.0 0.0 6.69" Properties=species:S:1:pos:R:3:forces:R:3 group=Ti2ZrNb_rattle10_b1 composition=Ti2ZrNb energy=-135.76565551757812 pbc="T T T"
Nb      -0.07914471      -0.04132620      -0.05333853       0.11621417       0.35884371       0.11071644
Ti       1.56505883       1.69771654       1.89697518       0.66337448       0.10707691      -0.97162521
Nb       0.11079951       0.19378368       3.24173892      -0.68481368      -0.48478934       0.39622617
Ti       1.61067549       1.59684621       5.04057859       0.08215915       0.50128913       0.31186667
Zr      -0.36049532       3.38614571       0.34404246       1.69679821      -1.10873640      -2.05829716
Ti       1.55395604       5.12984565       1.65118841       0.24904689      -0.29946306       0.01659815
Ti       0.09356995       3.27056187       3.29085201      -0.43200848       0.05642742       0.54967791
Zr       1.61023108       4.98111543       4.97148688      -0.14700067      -0.33889067       0.33339852
Zr       3.43271326      -0.17788404      -0.04345787      -0.20594150       0.19537894       0.17910743
Ti       4.98148308       1.45628007       1.64904070      -0.16459617       0.16498339       0.43628636
Zr       3.35261292       0.01408873       3.33719444       0.05668718       0.21765262      -0.08678794
Ti       4.94344087       1.67345191       4.99417808       0.21848941       0.22886214      -0.16254362
Ti       3.45103027       3.21709068       0.13891825      -0.68790227       0.09256394      -0.23167510
Nb       5.05805310       4.80433405       1.81196536      -0.85047728       1.61789656       0.88706082
Nb       3.31793782       3.52741893       3.30885647       0.05032940      -0.91468227       0.10134824
Ti       5.13943584       5.09819051       4.82214528       0.03964107      -0.39441267       0.18864228
16
Lattice="6.69 0.0 0.0 0.0 6.69 0.0 0.0 0.0 6.69" Properties=species:S:1:pos:R:3:forces:R:3 group=Ti2ZrNb_rattle18_b2 composition=Ti2ZrNb energy=-134.45587158203125 pbc="T T T"
Nb       0.01343313      -0.14126800      -0.01392667      -0.97331059      -0.04211094       0.47934365
Zr       1.83291019       1.68150154       1.87569005      -1.13203061       0.44270566      -0.75971210
Zr       0.05764179       0.03811126       3.68440661      -0.65585482      -0.80325234      -0.92830288
Zr       1.77583924       1.59127113       5.41179976      -1.76691604       1.45908177      -2.94248724
Zr      -0.32779318       3.32510142      -0.16227879       0.94694781       0.33525535       1.19106019
Ti       1.69068106       5.05560925       1.40500259      -0.45178589      -0.26929361       0.33997697
Ti      -0.19624174       3.15721563       3.04635604       0.27152070       1.11545157       0.73663133
Ti       1.68889041       4.78918352       5.01368771      -0.19055790       0.59749866      -0.44742015
Nb       3.25977979       0.22773782      -0.14730944       2.41281199      -2.48655081       1.02936828
Ti       5.01953388       1.69330620       1.76866935      -0.36246228      -0.54737616      -0.48129988
Nb       3.21249992      -0.14369218       2.99332722       0.70496285      -0.18349892       1.97488761
Ti       5.01777384       1.83128495       5.01654234      -0.79621160      -0.94695485      -0.69504148
Ti       3.20930918       3.44320322      -0.16084742       0.76487684       0.15540183       0.87184495
Ti       4.61303057       5.07041401       1.53319842       1.00621939      -0.10389647      -0.06287913
Ti       3.25836559       3.36816058       3.21659267       0.39595103       0.32460648       0.47015479
Nb       4.84232123       4.83308346       4.99343276      -0.17415996       0.95293301      -0.77612501
16
Lattice="6.69 0.0 0.0 0.0 6.69 0.0 0.0 0.0 6.69" Properties=species:S:1:pos:R:3:forces:R:3 group=Ti2ZrNb_rattle18_b2 composition=Ti2ZrNb energy=-134.9459991455078 pbc="T T T"
Nb       0.01767755       0.01575812      -0.06896820      -1.37330472       0.66069615       0.45574939
Zr       1.81503656       1.76246036       1.41105427      -1.17520154      -0.70967090       1.41629803
Ti      -0.03246789      -0.24940869       3.08713626      -0.50568646       0.87788993       0.24054047
Ti       1.74987316       1.60401435       5.16217531      -0.12592880       0.31303081      -1.21928453
Ti      -0.00898907       3.28211157      -0.25725548      -0.08626851       0.00312668       0.40584373
Zr       1.59942131       4.91493282       1.49291777      -0.33576137      -0.07962368       0.67053831
Nb      -0.20615060       3.24423459       3.30799810       0.58863604       0.04626393      -0.08045153
Zr       1.58783335       5.34679630       5.11183167       0.43127578      -1.76072156      -1.42682314
Ti       3.19819473      -0.08471544       0.01671747       1.65315747       0.36154735      -0.05106997
Ti       5.03282755       1.77684930       1.64291644       0.50357318      -1.06404603       0.37816158
Nb       3.22699094      -0.19391292       3.16363768       0.79283291       0.66232663       0.25326681
Ti       5.03658500       1.78772547       4.99605931      -0.11565390      -1.18442500      -0.53389704
Zr       3.51839500       3.17976862       0.10212937      -0.16096777       0.85748583      -1.51598012
Ti       4.90411094       4.96163129       1.46515597       0.70818913       0.44059998       0.41205835
Ti       3.40811426       3.38240021       3.22454376      -0.19293979      -0.11328289       0.75552690
Nb       5.13377601       4.90828753       4.96389599      -0.60595149       0.68880302      -0.16047741
16
Lattice="6.69 0.0 0.0 0.0 6.69 0.0 0.0 0.0 6.69" Properties=species:S:1:pos:R:3:forces:R:3 group=Ti2ZrNb_rattle18_b2 composition=Ti2ZrNb energy=-132.88475036621094 pbc="T T T"
Zr       0.42186700       0.22680949      -0.59352981      -2.22168541      -2.40362597       3.84765887
Ti       1.65070350       1.38491353       1.49988732       0.10960171       1.20452642       0.80372387
Nb       0.07420802       0.06540774       3.44070469      -0.84281415       0.30605501      -1.30626547
Ti       1.55549963       1.84556341       4.97622164       2.90538931       1.49170649      -1.30510736
Ti       0.15962412       3.54463961      -0.10669069      -0.73584044      -0.75920582       1.39669704
Ti       1.14776596       5.06463419       1.87909838       1.05596352      -0.22253546      -1.15602946
Zr      -0.17276520       3.53465570       3.78828091      -1.51054251      -0.73989999      -2.39362240
Nb       1.59496452       4.76536264       4.94037712       2.13966084       0.86556238       0.58478814
Zr       3.25007711      -0.24589011      -0.14070251      -0.35556138       1.44147301       1.14424670
Ti       4.90391628       1.91209452       1.70156209       0.71740711      -0.90410960      -0.49412340
Nb       3.15607398      -0.22433603       3.27092776       0.60337824       0.79374456       0.18666258
Nb       5.19934765       1.58219171       4.89493932      -2.43310547       0.43236941       0.40321112
Ti       3.52275771       3.48599692      -0.04813282      -0.59952956      -0.89774215       0.27558419
Ti       5.07750137       5.21069253       1.77998717      -0.00263309      -0.01484118      -0.34402201
Zr       3.20521600       3.30416454       3.24360871       0.24929710       0.06304076      -0.01463120
Ti       4.97760476       5.21941791       5.43528163       0.92101371      -0.65651780      -1.62877166
16
Lattice="6.69 0.0 0.0 0.0 6.69 0.0 0.0 0.0 6.69" Properties=species:S:1:pos:R:3:forces:R:3 group=Ti2ZrNb_rattle18_b2 composition=Ti2ZrNb energy=-133.75140380859375 pbc="T T T"
Ti       0.18484715      -0.20810179       0.27326060      -0.20400611       0.57678300      -0.28971615
Zr       1.59039520       1.77828815       1.83962527       0.58591366      -0.13201487      -1.30560768
Nb       0.24251401      -0.01981306       3.45031442      -0.71922588      -0.67035121      -0.41301122
Ti       1.97410334       1.55503134       4.83668204      -1.07024741       0.85099602       1.56236243
Zr      -0.09104690       3.53170568       0.15268123       0.11725911      -0.93743593      -0.07432663
Ti       2.13528611       4.83944234       1.35396528      -2.70816183       1.37195933       1.35027802
Ti      -0.04949394       3.34606253       3.30277832      -0.62207222       0.38772550       0.13323683
Zr       1.58035660       4.63052419       4.93693347       0.70053846       1.52618694       0.53464413
Nb       3.65864615       0.09798362      -0.20659016      -1.44926226      -0.02067553       0.80154383
Zr       4.90957218       1.66913928       1.98444143       0.45534587      -0.26795822      -0.70554483
Ti       3.20871478       0.22887856       3.34810024       0.69583374      -2.08459210      -0.12097272
Ti       5.11461804       1.39812335       5.11855976       0.80851984       1.21213055      -0.49031284
Nb       3.63741131       3.52138028       0.05482501      -0.45253968      -2.80658770      -2.37589788
Ti       4.54429383       5.00010006       1.55773418       3.20689535       1.78001130       2.07256627
Nb       3.33880640       3.56165834       3.38729925       0.97277039      -0.62879133       0.43584442
Ti       5.17252320       5.14727355       5.13507325      -0.31756097      -0.15738544      -1.11508536
54
Lattice="10.035 0.0 0.0 0.0 10.035 0.0 0.0 0.0 10.035" Properties=species:S:1:pos:R:3:forces:R:3 group=Ti2ZrNb_rattle10_b9 composition=Ti2ZrNb energy=-457.3157958984375 pbc="T T T"
Ti       0.06093300      -0.11268833      -0.00364430       0.14141230       0.29236019       0.40641549
Zr       1.61798596       1.54725351       1.72388560      -0.26389837       0.37343699      -0.28498465
Nb      -0.04647261       0.07091418       3.34851914      -0.55392134      -0.64308083       0.02233488
Zr       1.64133463       1.51567727       4.91130240      -0.11146095      -0.17439851       0.01212263
Nb      -0.10961050       0.06888183       6.88142442       0.53638220       0.02403855      -1.08815217
Ti       1.72281200       1.84031122       8.32933501      -0.47826746      -0.42590132       0.68430346
Ti      -0.05946444       3.42097332       0.00470052       0.21271242      -0.17605323      -0.71334952
Zr       1.63482174       5.00424553       1.53866127      -0.04911441       0.63251752       0.27615026
Ti      -0.05783285       3.53402234       3.20852216       0.08220479      -0.48598713       0.47292286
Nb       1.55771853       5.10601143       5.04264600       0.39204633       0.03076018      -0.22804897
Nb       0.02067595       3.26635423       6.53591382       0.15410268      -0.26145154       0.83086526
Nb       1.74223076       5.18023450       8.36909409      -0.09990399      -0.47377795       0.19475205
Ti      -0.00596047       6.67158516       0.10150299       0.20697090       0.30644876      -0.12903352
Ti       1.68653704       8.32671349       1.80061329      -0.03940901      -0.07131766      -0.10402347
Ti      -0.11208539       6.60541283       3.31150820       0.27728647       0.61398041       0.30518097
Ti       1.73312158       8.45112036       4.96988667      -0.21755750      -0.16180003       0.20599589
Zr      -0.00428774       6.59296881       6.77513648       0.64234114       0.78722537      -0.37622938
Ti       1.54606952       8.48391821       8.28025783       0.70640242      -0.04046728       0.19606103
Ti       3.12682695       0.14885975       0.12021419       0.48438618      -0.62224001      -0.61868435
Zr       5.11427279       1.75011953       1.49893025      -0.92045140      -0.51947546       0.84533095
Ti       3.37536341      -0.15288256       3.25637474       0.33347416       0.03610757       0.30516568
Nb       5.11295530       1.86246574       4.94090231      -0.04393955      -0.78572547      -0.04748639
Ti       3.44245762       0.13132289       6.76259217      -0.16069330      -0.35878137      -0.17603335
Ti       5.07573952       1.69635654       8.31531019      -0.61080652       0.14829069      -0.30186695
Nb       3.37122175       3.59504565       0.09153088       0.10002571      -0.49173978      -0.93602610
Ti       4.96485959       5.14269582       1.75981764       0.12537640       0.31921366      -0.25854534
Zr       3.35286145       3.42958366       3.20954126       0.12582245       0.01795165       0.55205369
Ti       5.00263763       5.06173943       5.04165928       0.04333265       0.11473878       0.01190129
Zr       3.06879380       3.16630162       6.53041581       1.13064635       0.98081970       0.37389988
Nb       5.04890145       5.05333962       8.36016585      -0.12237948       0.04623787      -0.17824146
Ti       3.33471768       6.78618783      -0.12180473       0.13429035       0.17774101       0.24049592
Nb       5.03753594       8.39497368       1.76442715      -0.19475378      -0.38495699      -0.16922449
Ti       3.15141905       6.53628555       3.49160374       0.49915019       0.61852825      -0.02320218
Ti       5.03164635       8.32816118       5.13018792      -0.03341126       0.07129034      -0.45444262
Ti       3.35159227       6.68969361       6.89377592      -0.05884454       0.05180775      -0.61214268
Zr       5.16548081       8.38579699       8.24908979      -0.45554379      -0.19310522       0.33175638
Zr       6.62234584       0.13951991      -0.08040409       0.34211898      -1.08841753       0.43476388
Ti       8.42522949       1.92576916       1.57819048       0.33858803      -0.96029758       0.49395445
Ti       6.60299336       0.09318309       3.21779832       0.40791515      -0.37335798       0.45092213
Ti       8.42735434       1.70901490       4.92300290      -0.08840057      -0.53779352      -0.07788502
Ti       6.68375265       0.01705962       6.69629569       0.16005614       0.29056570      -0.52976459
Nb       8.45231241       1.48004910       8.43034107       0.26995626       0.84416872      -0.13337177
Zr       6.66507580       3.17557026      -0.01838409       0.17297027       1.27631903      -0.72764349
Zr       8.19699537       5.05685534       1.66224476       0.43218333      -0.16180351      -0.00222111
Ti       6.68407976       3.26095121       3.28260503      -0.03586411       0.33560672       0.36148432
Zr       8.44221147       4.96676206       5.22674704      -0.39746356       0.24629655      -1.36253631
Zr       6.88742599       3.32274407       6.62710360      -0.71756977      -0.31045568       0.56382203
Nb       8.40459966       5.17591597       8.45015086      -0.11957818      -0.66462100       0.17092381
Ti       6.71472800       6.55600356      -0.01694806      -0.42494762       0.61337709       0.05413941
Ti       8.46366769       8.32804010       1.76078958      -0.31346118       0.27730945      -0.01150343
Nb       6.78333282       6.65877550       3.22197442      -0.71853346       0.46501684       0.67261088
Nb       8.17021504       8.28866659       5.07273450       0.33599317       0.63699222      -0.54304469
Ti       6.81427817       6.67467759       6.57257866      -0.69566512      -0.01206460       0.38662666
Zr       8.57278384       8.35359787       8.41709020      -0.86230648      -0.25007588       0.23073237
54
Lattice="10.035 0.0 0.0 0.0 10.035 0.0 0.0 0.0 10.035" Properties=species:S:1:pos:R:3:forces:R:3 group=Ti2ZrNb_rattle10_b9 composition=Ti2ZrNb energy=-458.8244323730469 pbc="T T T"
Ti       0.04314937       0.08671693      -0.02204604      -0.29036403      -0.36718437      -0.18749851
Zr       1.66469758       1.60036175       1.77292391       0.22612081       0.05068820      -0.22502527
Nb       0.00204168       0.03446417       3.53794875      -0.30427361      -0.07185733      -0.35863414
Ti       1.59349635       1.53386111       5.05045661       0.35219526       0.04524659      -0.32433775
Ti       0.12797355      -0.08425319       6.59433663      -0.32901984       0.23887825       0.44443315
Ti       1.60601191       1.76380438       8.44000335       0.52556854      -0.72885698       0.00800399
Zr       0.05099783       3.25783872       0.08707382      -0.23355693       0.80391574      -0.04653756
Nb       1.70639547       5.03466970       1.72252491      -0.36958879      -0.20079762       0.07792314
Ti      -0.05464246       3.20869255       3.24898322       0.13350797       0.54760534       0.46733323
Ti       1.73996179       5.14141161       5.06721580      -0.27514279      -0.31261289      -0.20598970
Zr       0.03172697       3.08269846       6.65828636      -0.09256095       0.69427240      -0.03799101
Ti       1.59944151       5.10222406       8.40906004      -0.13182129      -0.05313442       0.11423367
Nb       0.01342782       6.78110049       0.00267835      -0.56939203      -0.37255904      -0.09567209
Zr       1.70241870       8.36252241       1.50569549      -0.49258190       0.01031686       0.58756399
Nb       0.08831899       6.56981965       3.47584761      -0.28191149       0.14302513      -0.75599658
Zr       1.76189737       8.34753888       5.00229046       0.00052214      -0.05826439       0.01444424
Ti      -0.10789454       6.62632581       6.71305388       0.40534279       0.12474664       0.19287306
Ti       1.61878998       8.38606514       8.30187286      -0.05763064       0.21829712       0.14017838
Ti       3.36631798      -0.03316274       0.09462715       0.42307943       0.27602166      -0.44944116
Ti       5.13602290       1.63955955       1.76685686      -0.33595055       0.39780340      -0.44601369
Nb       3.25895899      -0.05442879       3.23831805       0.75785929      -0.02411502       0.28655118
Zr       5.01253808       1.74487795       5.03938266       0.05509641      -0.34796682      -0.11986888
Ti       3.48259334       0.01186113       6.59726492      -0.13063888      -0.09649306       0.40469751
Ti       4.91771740       1.74159209       8.41121342       0.25470978      -0.13550979       0.14998534
Ti       3.25259762       3.35795919       0.06599814       0.43028975       0.01613349       0.06545647
Ti       5.01604768       5.02535247       1.80131226       0.02392784      -0.39704591      -0.32424295
Nb       3.19926138       3.31399571       3.40145076       0.27398998       0.16626194      -0.14871703
Nb       5.01713463       5.12702124       4.94550019       0.10699259      -0.13175763      -0.02757871
Zr       3.18810384       3.29472440       6.65818737      -0.00888029      -0.07776779       0.06699070
Zr       4.88897653       4.91923065       8.12656143       0.80210733      -0.08946279       0.82657158
Zr       3.33776963       6.71451861       0.11916501       0.44747117      -0.17643671      -0.43221286
Ti       5.16289086       8.31097648       1.71813443      -0.41157472       0.11131184      -0.17158470
Nb       3.33103076       6.54292260       3.31829589       0.28594112       0.35066608       0.06658759
Nb       5.14357915       8.21928066       5.03020951      -0.21147706       0.39032620      -0.01642612
Zr       3.43235504       6.74735590       6.78363990      -0.25715092       0.17225945      -0.05428343
Ti       5.07227795       8.42270847       8.37523452       0.12809215       0.03169483       0.15323341
Ti       6.63773461      -0.02796664      -0.06969121       0.02056701       0.05876976       0.16449150
Ti       8.46474399       1.66907637       1.81314125      -0.53818977      -0.11749282      -0.26723123
Zr       6.67962177      -0.03972601       3.27246466       0.08611542       0.19936854       0.08836216
Ti       8.27393771       1.75672387       5.04753002       0.03287937      -0.42886978      -0.19532473
Ti       6.72036383      -0.08253083       6.81443502      -0.25775042       0.25546810      -0.14197665
Zr       8.30501664       1.75588162       8.43185715      -0.21497190      -0.52305162      -0.30035496
Nb       6.86844221       3.37461919      -0.03760785      -0.72130919       0.14879912       0.44516033
Ti       8.21354988       5.02052182       1.73035066       0.43882632       0.18268496      -0.09039019
Nb       6.63165194       3.49662380       3.40262448       0.04162571      -0.38900131      -0.54444849
Zr       8.40495948       5.00442941       4.99478243       0.03523922       0.08497892      -0.15890807
Ti       6.72848290       3.42370352       6.46034569      -0.15085074      -0.04015484       0.72748983
Ti       8.31778597       5.13438351       8.27817729       0.00471032      -0.13401891       0.39760748
Nb       6.72333853       6.70943733       0.15900045       0.06594319      -0.04843128      -0.38842037
Ti       8.41659032       8.49407864       1.61462264       0.19210455      -0.32035369      -0.04371189
Ti       6.59846643       6.71400639       3.30341469       0.28565007      -0.07905819      -0.08985259
Zr       8.33535688       8.34902621       5.00714088       0.15020080       0.03157645      -0.05596851
Ti       6.83008448       6.75670702       6.70670978      -0.47567156      -0.12431101       0.21389133
Nb       8.35382894       8.35387649       8.22780603       0.15558384       0.09544890       0.60057694
54
Lattice="10.035 0.0 0.0 0.0 10.035 0.0 0.0 0.0 10.035" Properties=species:S:1:pos:R:3:forces:R:3 group=Ti2ZrNb_rattle10_b9 composition=Ti2ZrNb energy=-458.0218505859375 pbc="T T T"
Ti      -0.10889813      -0.15838721      -0.01158158       0.28858829       0.69031572       0.04852581
Zr       1.65381384       1.63315639       1.52857398      -0.28115398      -0.14338797      -0.01045817
Ti      -0.01724253      -0.10720729       3.43422968       0.42135617       0.13788876      -0.05179853
Ti       1.83912670       1.90108153       4.87974486      -0.75824863      -0.51369905       0.30225319
Ti      -0.10828817       0.09641117       6.71390994       0.49415717      -0.22527954      -0.38208196
Zr       1.69428046       1.58108896       8.27877885      -0.57392830       0.67671233       0.72035652
Ti      -0.18730549       3.44734184      -0.01248449       0.14406547      -0.06424977      -0.01234532
Ti       1.73497426       5.06581275       1.82800715      -0.87250888      -0.26744246      -0.40226892
Ti      -0.01100059       3.29119998       3.32622707       0.09007274       0.37858847       0.09739030
Ti       1.65306518       4.96419159       5.02162339       0.08941101       0.15082729       0.13498884
Ti      -0.03705272       3.46219762       6.51803505       0.24210979      -0.00408612       0.39118636
Ti       1.59680710       4.94096337       8.56132056       0.11273372      -0.04603431      -0.28595111
Ti       0.01438717       6.78711687       0.06302294       0.08386563      -0.87439942      -0.14519806
Ti       1.61819145       8.14104995       1.66688884      -0.27760932       0.97516680       0.01836607
Ti       0.09775494       6.75694803       3.41131410      -0.29469964      -0.28830355       0.18299305
Nb       1.86961377       8.45805299       5.01666451      -0.58820510       0.06243505       0.12542841
Zr       0.01571339       6.76308824       6.82701550       0.25003409      -0.52990007      -0.58095479
Zr       1.75319538       8.35491628       8.36190457       0.13826656      -0.08258552       0.12726296
Nb       3.42973078      -0.24191683       0.17945947      -0.08941250       0.56551647      -0.34286505
Nb       5.01791329       1.64785572       1.75735086      -0.11480710       0.33784848      -0.83793688
Nb       3.39844664       0.11570633       3.41819772      -0.39260328      -0.56764650      -0.30292711
Nb       5.02431703       1.65193760       4.91806435       0.04474350       0.30276167       0.21961246
Zr       3.39799449       0.28350044       6.72363566       0.15139616      -1.13564348      -0.32427084
Ti       4.91779082       1.83303689       8.32444983       0.30831310      -0.24634489       1.06519198
Ti       3.42231554       3.52747674       0.19284454      -0.13358691      -0.38418764      -0.47153693
Ti       5.02813391       5.00430541       1.60178212       0.42915821      -0.03797380       0.25428939
Zr       3.35638033       3.38461377       3.28186929       0.15255854       0.33079749       0.08756867
Nb       5.11227130       4.92898730       4.95192535      -0.40726173       0.02328679      -0.08142740
Ti       3.36646141       3.19339974       6.74304453      -0.10193721       1.07751513      -0.24579749
Ti       4.91636504       4.98180172       8.38110273      -0.09125907       0.05041823       0.09111807
Nb       3.18915419       6.56830238       0.23263303       0.35997882      -0.10653497      -0.94555795
Ti       4.83040059       8.24573091       1.64788924       0.91747522       0.22679415      -0.16827539
Zr       3.29305694       6.79767620       3.22354716       0.27334324      -0.56893653       1.04656732
Nb       5.07670547       8.25773964       5.00835815      -0.55915701       0.76882082      -0.29033378
Nb       3.46154980       6.60391536       6.66451696      -0.47643656      -0.23942660       0.12351854
Nb       5.06480637       8.26457883       8.47822718      -0.24911222       0.05001082       0.18185048
Nb       6.59348390       0.02118227       0.20321547       0.04237715       0.24548891      -0.61294597
Ti       8.49432592       1.79662666       1.79381995      -0.17286004      -0.21321037      -0.45259413
Zr       6.62941710       0.07648479       3.22185764       0.31340462      -0.67315322       0.24917305
Zr       8.32222033       1.70568644       5.02555542       0.50196266       0.04604124      -0.27517119
Zr       6.70068138       0.05645690       6.78100185      -0.27525520      -0.15542549       0.03471273
Ti       8.43205436       1.71718534       8.18319542       0.06771449       0.18970810       0.82898653
Ti       6.61933088       3.21508637       0.01444996       0.27442446       0.10688510       0.02048989
Ti       8.43238547       4.88045460       1.72517638      -0.21427709       0.29555586      -0.02414997
Ti       6.62312013       3.25718970       3.35071870       0.15679134       0.50773662      -0.26040584
Ti       8.26132587       4.99954044       5.04904452       0.30733040       0.13773158      -0.47679701
Zr       6.64624323       3.38445969       6.69992144      -0.09817273       0.11528054       0.21345839
Nb       8.31434001       4.99560736       8.36074240       0.13934928      -0.11818927       0.33884984
Ti       6.58157896       6.45335950      -0.06192533       0.11625393       0.21456733       0.29501688
Zr       8.44672844       8.29285353       1.57861748      -0.42302585      -0.22756919       0.48763606
Nb       6.62410548       6.74037884       3.34174842       0.34719849      -0.38220868      -0.36831087
Ti       8.46534046       8.34536892       5.03380989      -0.07389490       0.04489097      -0.28023791
Zr       6.56195269       6.77668906       6.50613541       0.57322907      -0.62166858       0.74241483
Zr       8.37004602       8.33710689       8.39101770      -0.31225103       0.00789613       0.20339239
54
Lattice="10.035 0.0 0.0 0.0 10.035 0.0 0.0 0.0 10.035" Properties=species:S:1:pos:R:3:forces:R:3 group=Ti2ZrNb_rattle10_b9 composition=Ti2ZrNb energy=-457.8439636230469 pbc="T T T"
Ti       0.01169782      -0.06909456      -0.02909185      -0.06019185       0.46103871       0.57087594
Ti       1.72584618       1.84185425       1.73023853      -0.16320650      -0.57194698      -0.51884210
Ti       0.12790026       0.06854699       3.51115003      -0.37328333       0.12447759      -1.03747964
Nb       1.83697320       1.55107827       5.04294820      -0.58689737       0.77943105       0.18994547
Zr       0.02322989       0.03037995       6.62093304      -0.11804286       0.14937627       0.57043070
Ti       1.70000886       1.69624836       8.33314922      -0.04030287       0.18978526       0.08555381
Nb      -0.00132360       3.29512556       0.03286337       0.19650945       0.09912958      -0.48144448
Nb       1.58302612       5.00977151       1.75274185       0.19751284       0.11819811      -0.40981457
Ti       0.05286871       3.22568582       3.11485110      -0.05620936       0.50749689       1.06031835
Ti       1.61731133       5.11984086       4.94451842      -0.15873159      -0.89584631       0.24651931
Nb       0.23676944       3.42571107       6.69867230      -0.26539987       0.19155335       0.15912828
Ti       1.68333364       5.15421752       8.40833783       0.02298053      -0.43027973       0.32649571
Nb      -0.03207711       6.85622569      -0.07884806       0.01062732      -0.72326589       0.48815668
Nb       1.70523915       8.37481444       1.79978419      -0.34355915       0.05624720      -0.91253817
Nb       0.00769917       6.73051005       3.43359958      -0.60312343      -0.44301906      -0.56481433
Zr       1.62198876       8.31280036       4.93620510      -0.10475588       0.07515189       0.46805644
Ti       0.12846469       6.67968137       6.76843015      -0.63887286      -0.33487129      -0.18167570
Zr       1.55773866       8.48260472       8.32794194       0.46683681      -0.25124529       0.38930023
Ti       3.23377095       0.05770440      -0.19054678       0.07212310      -0.07996782       0.48527908
Zr       5.01241846       1.75407378       1.61218627       0.03957795      -0.35272110       0.28840053
Zr       3.36973011      -0.00797931       3.27479860      -0.01503706      -0.07065840      -0.45647430
Zr       4.80947477       1.55470703       5.13100686       1.42621958       0.40864065      -0.18655190
Ti       3.36377465      -0.14827299       6.53032922      -0.08268970       0.07428342       0.69904172
Zr       5.18618754       1.60271435       8.35370007      -0.35913104       0.02778728      -0.27483410
Nb       3.31575065       3.30675772       0.07110148      -0.48988679       0.41564935      -0.25818664
Ti       5.00698684       4.87700799       1.76763412      -0.44951797       0.50966442      -0.12055516
Nb       3.29297296       3.15984519       3.48348372      -0.17553112       1.09984696      -0.24560605
Ti       4.92359701       4.93903717       5.02677570       0.37169239      -0.16876256       0.01474714
Ti       3.45998464       3.23266780       6.79713433      -0.70935750       0.44410205      -0.05422638
Zr       4.96427604       5.09412681       8.25002138       0.25880587      -0.16016713       0.25896856
Ti       3.48173490       6.82871460       0.04989019      -0.45127240      -0.40300658       0.17142589
Ti       4.87641759       8.39724755       1.60948047       0.47149611      -0.00826768      -0.23899239
Zr       3.29799346       6.70213451       3.48756003       0.39832291      -0.64310861      -0.82900214
Nb       5.05142947       8.37463497       4.91971971       0.28533459       0.36109936       0.52526897
Zr       3.48192896       6.77804655       6.75875162      -0.29998437      -0.43406686      -0.17203996
Ti       4.97474732       8.38969581       8.30018020       0.40386003       0.18054231       0.22505745
Zr       6.76334395       0.00295157      -0.07506224       0.19014013      -0.61179471       0.39915931
Nb       8.36099629       1.74095524       1.80385497       0.25021502      -0.53418875      -0.13801287
Ti       6.69850834      -0.03753423       3.33416161       0.17161113      -0.00361191      -0.23577183
Zr       8.45544910       1.65019639       5.14451443      -0.33419624       0.82629114      -0.52766484
Ti       6.83359654      -0.03006039       6.68432992      -0.28850421      -0.33392769       0.04626697
Ti       8.41274124       1.57544480       8.40627611       0.18757154       0.60755461      -0.11627910
Zr       6.63227790       3.42220579       0.09397591       0.56337994       0.18373159      -0.44351226
Ti       8.53958898       4.81873566       1.54419871      -0.08438151       0.89114976       0.35981101
Ti       6.66432556       3.45189144       3.24093405       0.29340190       0.00386885       0.63726342
Nb       8.44623771       5.15639731       5.02677112      -0.02942606      -0.42283338       0.07406737
Ti       6.72074638       3.38980145       6.61952947       0.33031526       0.22811276       0.03352079
Ti       8.34560705       5.08220867       8.39496943       0.25136206      -0.10208733      -0.36657745
Ti       6.68168755       6.62143240      -0.11735237       0.10960166       0.29807380       0.46403199
Nb       8.53333952       8.28314622       1.66970963      -0.23002478       0.27263832       0.09539308
Zr       6.56642875       6.81886742       3.41336360       0.68459618      -0.51686567      -0.51574510
Ti       8.41968406       8.56912939       4.97351405      -0.23387364      -0.74459344      -0.09590798
Ti       6.69925126       6.86725822       6.57297968       0.26961350      -0.22801310       0.09490833
Ti       8.39715523       8.29892449       8.36916548      -0.17831583      -0.11580570      -0.04484278
16
Lattice="6.542081672550571 0.0 0.0 0.0 6.542081672550571 0.0 0.0 0.0 6.542081672550571" Properties=species:S:1:pos:R:3:forces:R:3 group=Ti2ZrNb_strain_vol_b0 composition=Ti2ZrNb energy=-135.9129638671875 pbc="T T T"
Nb      -0.01624746      -0.02980220      -0.06003595      -0.00843474      -0.19495386       0.12358687
Zr       1.63613887       1.62838781       1.64386871      -0.13481523      -0.18503554       0.37596101
Ti      -0.02166762       0.01533402       3.27065541       0.10140310      -0.23353244       0.15716757
Zr       1.63281737       1.62927811       4.98716804      -0.11485708      -0.07374275      -0.54622799
Ti      -0.00040019       3.23820930       0.04253994      -0.24146429       0.18040216      -0.13771476
Ti       1.59732120       4.85973947       1.62443030      -0.08925450       0.30389100       0.20670807
Ti       0.04081925       3.26499235       3.28506534      -0.20798734       0.14944133       0.14829004
Ti       1.66512190       4.89462488       4.97968763      -0.21281984       0.19896828      -0.35504237
Nb       3.29642455      -0.01761354       0.01250123      -0.08138305      -0.11785553      -0.09847890
Ti       4.91500421       1.59490471       1.68008158       0.09303334       0.05047876      -0.00503312
Nb       3.32457273      -0.00600527       3.29019862      -0.20582786      -0.18475115       0.15316623
Nb       4.90058154       1.59736818       4.91511287       0.24393883       0.17905900      -0.21470433
Zr       3.24866888       3.27687538       0.00043491       0.30053383       0.03615779      -0.01149626
Zr       4.85727802       4.94714982       1.62414914       0.43462512      -0.14972320       0.25268984
Ti       3.31711032       3.30086636       3.27233647      -0.03797475       0.01311695       0.18964687
Ti       4.91793831       4.90616010       4.94137526       0.16128457       0.02807950      -0.23851883
16
Lattice="6.620390702484445 0.0 0.0 0.0 6.620390702484445 0.0 0.0 0.0 6.620390702484445" Properties=species:S:1:pos:R:3:forces:R:3 group=Ti2ZrNb_strain_vol_b0 composition=Ti2ZrNb energy=-136.2080078125 pbc="T T T"
Ti      -0.01411375       0.00353238       0.01699874       0.23582982       0.09188147      -0.33008155
Ti       1.62887488       1.66328527       1.66918780       0.32601970      -0.32420021      -0.10073144
Ti      -0.01525755       0.03713211       3.30296833       0.33545309      -0.10035590       0.34359488
Ti       1.65188757       1.69922726       4.98026021       0.24478342      -0.28244486      -0.00657778
Zr      -0.03284925       3.37473520      -0.02610788       0.32061684      -0.35625008      -0.27126592
Nb       1.65595503       4.94830649       1.59551675       0.31571084       0.45631862       0.14178486
Zr       0.01020063       3.35424393       3.28216185       0.35041487      -0.12094957       0.43261030
Ti       1.65044795       4.95485140       5.00529261       0.30989355       0.24992250      -0.14812872
Nb       3.33591717      -0.06257526      -0.06285018      -0.29524294       0.18384263      -0.10912630
Zr       4.98161269       1.62205337       1.67353863      -0.26867050      -0.32270351      -0.15392488
Nb       3.30375349      -0.00509141       3.36357809      -0.32817402      -0.03492002       0.16782114
Ti       4.92334954       1.69994611       4.92612991      -0.13722147      -0.28172576       0.11322856
Ti       3.33078680       3.29259725       0.06702276      -0.29469681      -0.03482069      -0.38612139
Zr       4.98660464       4.93622608       1.68931874      -0.31439346       0.48941869      -0.03597833
Nb       3.32825062       3.29514223       3.26173357      -0.42928267       0.02437021       0.48598129
Ti       4.99895062       4.91926199       4.98878839      -0.37104025       0.36261660      -0.14308451
16
Lattice="6.69 0.0 0.0 0.0 6.69 0.0 0.0 0.28530110597621433 6.69" Properties=species:S:1:pos:R:3:forces:R:3 group=Ti2ZrNb_strain_shear_b0 composition=Ti2ZrNb energy=-136.61322021484375 pbc="T T T"
Nb       0.01451338       0.00839908      -0.01289795      -0.00227410      -0.00024091      -0.01030303
Ti       1.67376531       1.74334744       1.66349758       0.18964002      -0.03534890      -0.21798639
Zr       0.00342059       0.11609839       3.29556478       0.03256021       0.06047592       0.01912124
Ti       1.67334054       1.91298730       4.98936378       0.25826207      -0.14471999       0.26147225
Ti      -0.04236320       3.28849800      -0.02335841       0.14306888       0.07178310       0.04103574
Ti       1.70794236       5.08315516       1.65893630       0.15493840      -0.04474473      -0.21824101
Zr      -0.01768588       3.49318346       3.38706718       0.10137174      -0.00819656      -0.18469596
Zr       1.67176608       5.22567701       5.03777473       0.27773154      -0.04239171       0.22559303
Nb       3.37321397      -0.04979104      -0.02515072      -0.01958613       0.10810463       0.01105820
Zr       4.99432601       1.78493937       1.66277731      -0.17314792      -0.10810052      -0.30240166
Nb       3.35027944       0.16793022       3.33255362       0.01234067      -0.18453625      -0.00539051
Ti       5.02933828       1.85827970       4.96985498      -0.28856400      -0.01900339       0.33846885
Ti       3.31294398       3.30730084       0.00479941       0.08259802       0.06568459      -0.13061997
Ti       5.03368449       5.05783064       1.61722013      -0.25280660       0.06782835      -0.15969753
Nb       3.34891525       3.46461457       3.32184429      -0.02511327       0.15373459       0.08229872
Ti       5.09144788       5.20639862       4.99872018      -0.49101961       0.05967177       0.25028801
16
Lattice="6.69 0.0 0.0 0.0 6.69 0.0 0.0 0.2349150468159786 6.69" Properties=species:S:1:pos:R:3:forces:R:3 group=Ti2ZrNb_strain_shear_b0 composition=Ti2ZrNb energy=-136.6019287109375 pbc="T T T"
Zr       0.02076505      -0.00090665       0.03697195      -0.09666883      -0.07840003      -0.25279319
Ti       1.72445268       1.76894603       1.65908206       0.04673915       0.02932645       0.16419280
Ti       0.04356764       0.09029420       3.35041060      -0.08903942      -0.01850238       0.10929181
Zr       1.68797157       1.83270786       5.01033723       0.07283747       0.27500644      -0.27122712
Ti       0.00291386       3.34038895      -0.02157141      -0.09833094       0.05644798      -0.06200033
Zr       1.65143337       5.09191063       1.66833643       0.27418908      -0.25130689       0.11668578
Ti      -0.02771493       3.49932901       3.29404250      -0.04447636      -0.00367807       0.24301618
Ti       1.70653068       5.14184644       5.04693716       0.00714064       0.00889454      -0.22581141
Nb       3.32475262      -0.02210391      -0.08054425       0.23118524      -0.11512440       0.06429573
Zr       5.04055617       1.73367973       1.67549811      -0.20927969       0.18813738       0.10176077
Nb       3.35440040       0.07474982       3.32448532       0.09413970      -0.05998787       0.13669050
Nb       5.03526972       1.82640992       4.98902483      -0.10948964       0.20310809      -0.12603499
Ti       3.33797245       3.34987439      -0.03539332       0.25854936       0.10836808      -0.06285730
Nb       5.04568047       5.09922017       1.66945796      -0.24915475      -0.23371059       0.06358542
Ti       3.38946588       3.52290586       3.34567990       0.09984171      -0.00906804       0.08402802
Ti       5.06710725       5.19460761       5.00816218      -0.18818283      -0.09951068      -0.08282278
16
Lattice="6.867732173270144 0.0 0.0 0.0 6.867732173270144 0.0 0.0 0.0 6.867732173270144" Properties=species:S:1:pos:R:3:forces:R:3 group=Ti2ZrNb_strain_vol_b0 composition=Ti2ZrNb energy=-136.2265167236328 pbc="T T T"
Ti      -0.01587497       0.03061292       0.00363523       0.11050711      -0.00775607       0.06633013
Ti       1.73300737       1.73981745       1.71675656       0.09280623      -0.10454118       0.10814422
Ti      -0.02045977       0.04551735       3.41203477       0.11483514      -0.01109938      -0.08194093
Ti       1.69172049       1.76724153       5.14107437       0.21141407      -0.21022500      -0.10718479
Zr       0.01498818       3.42481454      -0.05474896       0.06724506      -0.03324313       0.13742444
Nb       1.65480078       5.17116856       1.68322268       0.16803788       0.15331140       0.20417893
Ti      -0.00897578       3.37818478       3.47653995       0.07999412       0.06592488      -0.23389614
Zr       1.76482415       5.12579977       5.11710059      -0.00287199       0.26710808      -0.08888039
Ti       3.45695515       0.02121939       0.01184964      -0.18174529       0.06915011       0.09927946
Nb       5.18251889       1.72999299       1.69402684      -0.18267903      -0.17363885       0.18546763
Ti       3.43135896      -0.01992263       3.42517643      -0.10677995       0.15146194      -0.13986318
Zr       5.14969587       1.72053830       5.14889848      -0.18365024      -0.18085626      -0.14212176
Nb       3.41191815       3.43890911       0.00058425      -0.09662007      -0.12523916       0.08148588
Zr       5.09774164       5.11674987       1.70996153       0.02024931       0.22424936       0.13410023
Nb       3.43760269       3.44596841       3.42966875      -0.14551836      -0.17566931      -0.09683918
Ti       5.07838203       5.14330160       5.16764149       0.03477583       0.09106249      -0.12568456
16
Lattice="6.69 0.0 0.0 0.19074951733734072 6.69 0.0 0.0 0.0 6.69" Properties=species:S:1:pos:R:3:forces:R:3 group=Ti2ZrNb_strain_shear_b0 composition=Ti2ZrNb energy=-136.51145935058594 pbc="T T T"
Ti      -0.03451084      -0.04307164      -0.01035545       0.02207585       0.27610135       0.09143849
Ti       1.69058262       1.67593130       1.64341870      -0.05237466      -0.09614307       0.11303426
Nb       0.05314779      -0.04707416       3.32841094      -0.25148958       0.33499280      -0.00819205
Zr       1.70521993       1.66521867       5.01562358      -0.07392053      -0.13116984      -0.12386470
Nb       0.09721143       3.37221678      -0.00757853      -0.09902644      -0.31242681       0.12681019
Zr       1.78079485       5.02491557       1.68576572       0.00331295       0.01664212       0.06973635
Ti       0.09883262       3.36046109       3.35987715      -0.14204407      -0.16823876      -0.11042445
Ti       1.80436432       5.02638061       5.03849747      -0.01868309       0.05485342      -0.10115067
Nb       3.38913702      -0.07806790       0.00204862      -0.05111672       0.44014335       0.16032061
Ti       5.13410243       1.65057453       1.66543872       0.00819751      -0.08276361       0.20402132
Ti       3.31905321      -0.01224986       3.30032983       0.17546906       0.17099860      -0.02928357
Ti       5.03851168       1.65581727       5.02054853       0.18212171      -0.11433438      -0.19740343
Zr       3.47813258       3.29961835       0.02019683      -0.02149892      -0.18543200       0.11287456
Nb       5.15309285       5.03537869       1.68003181       0.14136593       0.01721961       0.24847826
Ti       3.43225131       3.40585585       3.37747645       0.13155612      -0.28172112      -0.16285473
Zr       5.17909034       5.03274667       5.05587163       0.04605488       0.06127827      -0.39354047
16
Lattice="6.69 0.0 0.0 0.0 6.69 0.0 0.0 -0.22754960841513067 6.69" Properties=species:S:1:pos:R:3:forces:R:3 group=Ti2ZrNb_strain_shear_b0 composition=Ti2ZrNb energy=-136.59251403808594 pbc="T T T"
Zr       0.00347771       0.01249485      -0.01577085      -0.16661052      -0.03044981       0.03901222
Zr       1.71427078       1.64760502       1.67548051       0.00127284      -0.10238501       0.31640470
Nb       0.01714412      -0.12226786       3.30274259       0.03667079      -0.01492509       0.09435191
Nb       1.65227201       1.54010937       5.06214096       0.07720042      -0.16819601      -0.50249803
Ti       0.00340929       3.30199331       0.01559291      -0.14568539       0.10111701       0.02883606
Ti       1.68317018       4.96472872       1.63506378      -0.02184239      -0.01223270       0.34075415
Nb      -0.01126287       3.20687973       3.31860453       0.06470793       0.10058109      -0.06467308
Nb       1.67846336       4.81441068       5.05287910       0.00316446       0.09514630      -0.37693352
Ti       3.28399306      -0.01082450      -0.00149566       0.23150593      -0.00342152      -0.07611036
Ti       5.00499053       1.58673852       1.72693095       0.02416106      -0.01945650       0.05920901
Ti       3.40345415      -0.13678165       3.34762662      -0.26765692       0.01152256       0.08326101
Ti       5.03406149       1.50929041       4.96106464       0.00671931      -0.09091119      -0.11325047
Zr       3.32319650       3.29892651      -0.03363157       0.25421390       0.09515047       0.16863115
Ti       5.02664064       5.01209020       1.71268957       0.00711359      -0.11719882      -0.00045430
Ti       3.36690663       3.24102979       3.33297825      -0.10968948       0.00800702       0.02152884
Zr       5.02261295       4.78719003       4.97732200       0.00475459       0.14765230      -0.01806939
16
Lattice="6.771927275462372 0.0 0.0 0.0 6.771927275462372 0.0 0.0 0.0 6.771927275462372" Properties=species:S:1:pos:R:3:forces:R:3 group=Ti2ZrNb_strain_vol_b0 composition=Ti2ZrNb energy=-136.53500366210938 pbc="T T T"
Zr      -0.00078854       0.00473708      -0.00412164      -0.14659506      -0.11712172      -0.17144683
Zr       1.69395806       1.70456222       1.73265705       0.04369015       0.07843424      -0.14201492
Ti       0.02439926      -0.00213064       3.37250862      -0.17336178      -0.18293005       0.20099315
Nb       1.70743859       1.69669675       5.02309350       0.10656172       0.08013843       0.16223557
Zr      -0.01279528       3.42123455      -0.00419570      -0.12773438      -0.01721846      -0.12346166
Nb       1.67413379       5.11303005       1.72782598       0.14595114      -0.18939586       0.01066190
Ti       0.01956155       3.37018910       3.36854573      -0.16859290       0.17006257       0.18786748
Ti       1.67686000       5.00619160       5.11528309       0.18860297       0.05464234      -0.13894385
Ti       3.38946527       0.01672063       0.05192257       0.08916485      -0.15362503      -0.21935768
Ti       5.11622200       1.69388962       1.71406351      -0.13508973       0.07843442       0.06638670
Zr       3.37871432      -0.00740948       3.37297795       0.22937980      -0.19534537       0.28577954
Ti       5.10710997       1.66614305       5.06907349      -0.17280546       0.14514790      -0.07380925
Ti       3.39964204       3.38494302       0.05787209       0.06703833       0.06919661      -0.19286191
Nb       5.06926568       5.04478739       1.73862554      -0.07563989      -0.00942174       0.04067794
Nb       3.36349445       3.36064257       3.36730515       0.26688695       0.21148391       0.26116046
Ti       5.07056265       5.03751592       5.11071196      -0.13745679      -0.02248221      -0.15386663
16
Lattice="6.69 0.0 0.0 0.0 6.69 0.0 0.0 0.0 6.69" Properties=species:S:1:pos:R:3:forces:R:3 group=Ti2ZrNb_md600_b0 composition=Ti2ZrNb energy=-135.9602813720703 pbc="T T T"
Ti      -0.08573994       0.00260470      -0.32224155       0.34232938      -0.20499158       0.56932592
Zr       1.68336009       1.70767393       1.59933215      -0.20115104      -0.51299185       0.04517831
Ti      -0.05778483       0.07453785       3.49945248      -0.31680375       0.14705959      -0.41050506
Nb       1.65880971       1.51338128       5.03263071      -0.10050982       0.44926599      -0.01420845
Ti      -0.03862570       3.39122184      -0.00409304       0.26642960      -0.42643726      -0.42187947
Nb       1.49200342       4.97891448       1.58558329       0.26161456       0.42713356       0.17379858
Ti       0.12973849       3.28031684       3.25466493      -0.42642921      -0.15846100       0.41203576
Ti       1.38659879       5.20370363       4.76429757       0.68881875      -0.82888514       0.57148033
Nb       3.25325862      -0.23510995       0.05249036      -0.16575027      -0.02664456      -0.61871898
Zr       5.05504019       1.44216586       1.46595045      -0.12885423       0.57981908       0.44086361
Ti       3.20596770       0.05522388       3.39295160       0.34013116      -0.40951866      -0.06858693
Ti       4.86500780       1.48331763       5.18871237      -0.03930929       0.44305924      -0.35890645
Nb       3.06981406       3.32929364      -0.11129417       0.46970099       0.27380395      -0.12265263
Zr       5.16529518       5.07248812       1.61385668      -0.39988929      -0.28166461       0.32948443
Zr       3.42957286       3.34731181       3.47730088      -0.10870384       0.11938936      -0.16358133
Ti       5.17944268       4.74574991       5.14275719      -0.48162398       0.41006362      -0.36312768
16
Lattice="6.69 0.0 0.0 0.0 6.69 0.0 0.0 0.0 6.69" Properties=species:S:1:pos:R:3:forces:R:3 group=Ti2ZrNb_md600_b0 composition=Ti2ZrNb energy=-135.9386749267578 pbc="T T T"
Ti      -0.07393541      -0.00216628      -0.09678089      -0.05486961      -0.09887704      -0.36518681
Zr       1.57934433       1.41667755       1.60789895      -0.54930437       0.25038433      -0.29259440
Ti      -0.21032571      -0.19645935       3.43467269       0.30549896       0.13775268      -0.14688674
Nb       1.74428739       1.44887137       4.67154351      -0.40277344       0.03617979       0.78351426
Ti      -0.20424138       3.00213537      -0.24814796       0.36121941       0.07665502      -0.02617963
Nb       1.35507959       4.96481222       1.60267385       0.09830612      -0.29578698      -0.34206960
Ti      -0.09844462       3.01101188       3.49237813      -0.17267846       0.33921409      -0.12905814
Ti       1.39867216       4.75831050       4.92816200       0.19994368       0.23025507       0.36615679
Nb       3.11465535      -0.16437572      -0.29110179       0.11937022      -0.47280443       0.31043446
Zr       4.72029549       1.59581818       1.80343583       0.86619294      -0.75313973      -0.31446990
Ti       3.20467595      -0.23169263       3.25140522      -0.04793346      -0.35851011       0.08327082
Ti       4.78036509       1.38839304       4.97408273       0.03536656       0.22894745      -0.04975270
Nb       3.40791082       3.09993584       0.00889195      -0.66902608       0.57331103      -1.04722536
Zr       5.10191582       4.78326524       1.50018021      -0.04148409       0.60122353      -0.05284399
Zr       3.13718905       3.43229149       3.11553486       0.14469264       0.12265825       0.94941998
Ti       5.01449751       5.08745552       4.93978266      -0.19252089      -0.61746293       0.27347097
16
Lattice="6.69 0.0 0.0 0.0 6.69 0.0 0.0 0.0 6.69" Properties=species:S:1:pos:R:3:forces:R:3 group=Ti2ZrNb_md600_b0 composition=Ti2ZrNb energy=-136.00424194335938 pbc="T T T"
Ti      -0.50134087      -0.49579360      -0.44131193       0.74265271       0.51792234       0.61640692
Zr       1.37400240       1.43533341       1.57619534       0.00300336      -0.40718901      -0.39519784
Ti       0.07490666      -0.52052538       3.36061266       0.10762464       0.32418144      -0.39266285
Nb       1.22602973       1.49491454       5.03525611       0.19689856      -0.41207993      -0.01622760
Ti      -0.27163915       3.10065462      -0.28760666      -0.18023467       0.27746645       0.20609242
Nb       1.60767182       4.76290336       1.12922715      -0.40509176       0.17752180       0.61946952
Ti      -0.03304721       3.42998588       3.26069119       0.02563344      -0.27512488      -0.14612767
Ti       1.65506308       4.83573038       5.14844163      -0.20794746      -0.21384338      -0.07907131
Nb       3.42054449      -0.11969214      -0.24747683      -0.47444722       0.09573214      -0.14318655
Zr       4.95972891       1.42649536       1.72017242      -0.00118083       0.06277874      -0.26093268
Ti       2.99655691      -0.26952312       3.52836993      -0.06481019       0.20566835      -0.43593448
Ti       4.95983770       1.41654328       4.60941035       0.13639839       0.05613162       0.25070268
Nb       3.25842617       2.95585806      -0.31234171       0.20890974       0.21385582       0.22988412
Zr       4.64036908       4.98083336       1.63523039       0.34563333      -0.53098583      -0.13215376
Zr       2.94005616       2.97126756       3.33952796       0.24533246       0.40499502      -0.18506956
Ti       4.93315655       4.82540428       4.66547339      -0.67837459      -0.49703091       0.26400867
16
Lattice="6.69 0.0 0.0 0.0 6.69 0.0 0.0 0.0 6.69" Properties=species:S:1:pos:R:3:forces:R:3 group=Ti2ZrNb_md600_b0 composition=Ti2ZrNb energy=-136.14549255371094 pbc="T T T"
Ti      -0.27794264      -0.35727656      -0.13441690      -0.04950969      -0.22765598      -0.24384381
Zr       1.46741739       1.51532916       1.13933678      -0.21749397      -0.09587269       0.48277110
Ti      -0.16800364      -0.41566686       3.16187748       0.34517601       0.04083174       0.26315221
Nb       1.30692841       1.27239630       4.96727474      -0.21381855       0.24020620      -0.30856133
Ti      -0.49657039       3.42823084      -0.24439138       0.45597255      -0.49819085      -0.29668936
Nb       1.41750262       4.79482071       1.32748678       0.24255574       0.05797112       0.16726850
Ti      -0.10256442       3.19431662       3.13163645      -0.01280645      -0.15518999       0.49765494
Ti       1.42701511       4.69771604       4.95293645       0.09965475       0.11514339      -0.06028147
Nb       3.17158334      -0.24823872      -0.36397360      -0.01475772       0.01682711       0.40074739
Zr       4.99890908       1.38850835       1.60138535      -0.14001572      -0.18939573      -0.07334161
Ti       3.00373699      -0.12442741       3.15242721      -0.18124698      -0.31735435       0.08920769
Ti       5.05970863       1.24402734       4.82762017      -0.23878485       0.27926630      -0.04861276
Nb       3.43124144       2.99098000      -0.16520466      -0.49911022       0.13976035      -0.36372906
Zr       4.73615094       4.68594425       1.75283722      -0.34668791       0.42556292      -0.18202260
Zr       2.95338276       2.87091797       3.31879971       0.14786002       0.23217909       0.15436646
Ti       4.45380988       4.84502991       4.90779159       0.62301290      -0.06408880      -0.47808611
16
Lattice="6.69 0.0 0.0 0.0 6.69 0.0 0.0 0.0 6.69" Properties=species:S:1:pos:R:3:forces:R:3 group=Ti2ZrNb_md1400_b1 composition=Ti2ZrNb energy=-135.8591766357422 pbc="T T T"
Nb      -0.21964650      -0.17987854       0.14280137       0.45086417       0.28829622       0.05032258
Zr       1.87202444       1.80590428       1.87688973      -0.98786104      -0.43644631      -0.86353481
Nb      -0.06555821      -0.18797065       3.53016779      -0.24576733       0.42098153      -0.25991821
Ti       1.56275427       1.43021254       4.97292220       0.06495632       0.34202620       0.71937859
Ti      -0.03621134       3.34705990       0.27894883       0.18116927      -0.28377700      -0.38971609
Ti       1.62752952       4.99967303       1.75182592       0.29789126       0.28583381      -0.33489937
Zr      -0.04220256       3.52184339       3.53407700       0.15381914      -0.81499308      -0.35841277
Zr       1.75848274       4.84686205       5.12418603       0.18826628       0.20642464       0.51076955
Nb       3.57415076      -0.04364313       0.03984908      -0.44554371      -0.01749910      -0.07931788
Ti       5.04388168       1.80383038       1.72839406       0.45626342      -0.46681678       0.04084294
Zr       3.43771879       0.13219335       3.31758163       0.23479980      -0.81664181       0.41861111
Ti       5.02139924       1.59927917       5.09554898       0.32655960       0.01857233       0.08886626
Ti       3.54155282       3.15455062       0.02605531      -0.64360613       0.02317721       0.03494594
Ti       4.87411531       4.90454990       1.75090243       0.25362805       0.30844411      -0.25641301
Nb       3.46582632       3.41551234       3.28629968      -0.12616912      -0.07253598       0.67269140
Ti       4.98490420       4.61059105       5.24283777      -0.15927027       1.01495409       0.00578387
16
Lattice="6.69 0.0 0.0 0.0 6.69 0.0 0.0 0.0 6.69" Properties=species:S:1:pos:R:3:forces:R:3 group=Ti2ZrNb_md1400_b1 composition=Ti2ZrNb energy=-134.77674865722656 pbc="T T T"
Nb      -0.03287680       0.07423259      -0.14430512       0.08603182       0.02498862       0.82255316
Zr       1.60349183       1.71749065       1.85621058       0.87984693      -0.14136800      -1.04100382
Nb       0.23034221      -0.18795870       3.03897556      -0.12308279       0.44350588       1.48458076
Ti       1.74777182       1.90855583       5.41861650       0.18977135      -0.61881447      -0.19600153
Ti      -0.25932187       3.16898321       0.16301480      -0.12761149       0.32310909      -0.13952944
Ti       1.79433762       4.40222881       2.16973643       0.49876142       1.06778860      -0.94538629
Zr      -0.10456184       3.04688602       3.43584376      -0.01146162       0.64395869       0.45846441
Zr       1.64732392       4.96795699       5.50881620      -0.26413101      -0.28318116      -0.30038929
Nb       3.56644146      -0.06828224       0.25163194      -0.63044667      -0.23244432      -0.40084460
Ti       4.68168457       1.53782106       1.68144471       0.75874352       0.34200740       0.34350100
Zr       3.14421598      -0.12413446       3.60792592       0.35340619       0.08660883      -0.14577849
Ti       5.17748160       1.42963076       4.88237468      -0.38576400      -0.49636763       0.85538471
Ti       3.65156777       3.60585878       0.09005313       0.21671645      -0.43985301       0.44404471
Ti       5.34078781       5.17498750       1.98713599      -1.19805789      -0.82695639      -0.89763582
Nb       3.62095936       3.18547880       3.91241707      -0.48952118       0.39431459      -0.68488777
Ti       5.13707790       5.18096526       4.96134351       0.24679835      -0.28729671       0.34292844
16
Lattice="6.69 0.0 0.0 0.0 6.69 0.0 0.0 0.0 6.69" Properties=species:S:1:pos:R:3:forces:R:3 group=Ti2ZrNb_md1400_b1 composition=Ti2ZrNb energy=-134.61778259277344 pbc="T T T"
Nb      -0.11722982      -0.03454083       0.19937469       1.95761919       0.41657263      -0.19799417
Zr       1.80588252       1.50106036       1.76684264       0.02685666      -0.22182105       0.62872630
Nb      -0.03525454      -0.03714656       4.02770667       0.54553819      -0.40336764      -1.02660310
Ti       1.53711217       1.84288513       4.98367678       0.83238518      -1.24838638       0.42501962
Ti       0.11454813       3.05861776       0.36700231      -0.35431999       0.79144615      -0.35448259
Ti       1.57305060       4.78772590       2.09461528       0.53003490       1.03898680      -1.21290016
Zr      -0.14969379       3.37466839       3.35964760      -0.69712323      -0.20826443       0.87887591
Zr       1.81768177       4.39396771       5.10770661      -0.27825373       1.70218301       1.22329462
Nb       3.15224969      -0.05758557       0.02265161       0.37369782      -0.04817447       0.14266104
Ti       5.32742126       1.43764357       1.95340761      -1.03893054       0.03661096      -0.11704260
Zr       3.55970414      -0.27669317       3.55880661      -0.28389576       0.72468102       0.17259964
Ti       5.23560452       1.72399216       5.38101056      -1.08391690       0.31022611      -0.19194204
Ti       3.53426890       3.27020958       0.39789385       0.21220677      -0.00401722      -0.05436778
Ti       5.37521497       5.24726882       1.77076041      -0.94891763      -0.66533291       0.39211276
Nb       3.51613385       3.46650213       3.23520870       0.68260545      -0.77190107       0.27410951
Ti       5.08752490       5.14597282       5.66823169      -0.47558716      -1.44944203      -0.98206723
16
Lattice="6.69 0.0 0.0 0.0 6.69 0.0 0.0 0.0 6.69" Properties=species:S:1:pos:R:3:forces:R:3 group=Ti2ZrNb_md1400_b1 composition=Ti2ZrNb energy=-134.9839630126953 pbc="T T T"
Nb      -0.02773468      -0.00721862       0.02943418       0.24154961      -0.38015160       0.81754673
Zr       1.69929088       1.31118683       1.99635757      -0.03415081       0.52738237       0.00747387
Nb       0.04971353      -0.19247650       4.00918175      -0.46716332       0.01818105      -1.08026981
Ti       1.46849353       1.62984643       5.30863051       1.18466866       0.07878584      -0.51481164
Ti       0.08614944       2.99118211       0.28322671       0.19109374       0.93935281       0.24336898
Ti       1.58331146       4.73363472       2.16370025       0.35322580       0.78013647      -1.31572926
Zr      -0.21181560       3.24242516       3.34038691       0.55973995      -0.04884486       0.90254694
Zr       1.85100273       4.49957954       5.12063671      -0.32652467       0.69269925       0.67037529
Nb       3.29305250       0.11024864       0.12699821       0.48210356      -0.56116438      -0.09365989
Ti       5.03497520       1.80309311       1.74537795      -0.51735675      -1.36529541      -0.25108707
Zr       3.43117513      -0.15726942       3.62013354       0.66290247       0.41993216       0.26235735
Ti       5.19478305       1.83466535       5.26089467      -1.05094886      -0.43845832       0.01991551
Ti       3.43360551       3.39164835       0.22885348      -0.08145870      -0.37161246       0.53345239
Ti       5.29244884       5.15282986       1.75070991      -0.25761607       0.36593831      -0.21042451
Nb       3.72385665       3.58026864       3.25097790      -0.54132593      -0.71029747       0.49435878
Ti       5.20950740       4.80877388       5.58696659      -0.39873865       0.05341647      -0.48541388
16
Lattice="6.720000000000001 0.0 0.0 0.0 6.720000000000001 0.0 0.0 0.0 6.720000000000001" Properties=species:S:1:pos:R:3:forces:R:3 group=TiZrNb2_rattle05_b0 composition=TiZrNb2 energy=-145.299072265625 pbc="T T T"
Ti      -0.03221871       0.06025412      -0.08265328       0.05980595      -0.11986466       0.32147866
Zr       1.67539490       1.70970994       1.70075592      -0.22300263      -0.24183041      -0.03297018
Nb       0.00091216      -0.02066212       3.40287337       0.04108895       0.01043731      -0.24024954
Nb       1.61100180       1.65688906       5.07980986       0.26977268      -0.19050321      -0.10643506
Ti      -0.04197666       3.41172260       0.01573740       0.12887922      -0.03231367       0.06479923
Ti       1.63809639       5.06412024       1.68122604       0.06842694       0.26403043      -0.07015780
Zr      -0.05178940       3.34726574       3.38287206       0.17152202       0.13414112      -0.17813823
Nb       1.66494382       5.00981757       5.04827284       0.02929923       0.39164865       0.08011226
Nb       3.37403630       0.07044619       0.01252085      -0.08515270      -0.27949739      -0.11231796
Nb       5.00079974       1.74751842       1.64592513       0.19982721      -0.37177277       0.10797745
Nb       3.37267868       0.02738694       3.28119331      -0.05938615      -0.02763332       0.26336715
Nb       5.13198888       1.72752543       5.01994493      -0.41070390      -0.39996946       0.02807741
Zr       3.36326633       3.31430105      -0.01672754      -0.14030281       0.29244372       0.06338324
Nb       5.02268052       5.06464288       1.69398980       0.01504227       0.32551336      -0.10438991
Ti       3.32179679       3.40068965       3.41305302       0.00476471      -0.09201609      -0.12321705
Zr       5.02323623       5.05495964       5.05567632      -0.06988072       0.33718613       0.03868053
16
Lattice="6.720000000000001 0.0 0.0 0.0 6.720000000000001 0.0 0.0 0.0 6.720000000000001" Properties=species:S:1:pos:R:3:forces:R:3 group=TiZrNb2_rattle05_b0 composition=TiZrNb2 energy=-145.05291748046875 pbc="T T T"
Zr      -0.04414984      -0.01792412      -0.01523170       0.66575003      -0.23998515      -0.41774499
Ti       1.55700917       1.68252511       1.69083144       0.88639033      -0.00011998      -0.25733355
Ti       0.07714949       0.07091306       3.27154244      -0.03710991      -0.33715546       0.57155728
Nb       1.65857237       1.69685765       4.96281755       0.34170654      -0.03723331       0.34561986
Nb      -0.05828522       3.33612200       0.03626597       0.51618063       0.24980372      -0.39191139
Ti       1.71359023       5.12226541       1.66440148       0.20966232      -0.12195276       0.01395314
Zr       0.04201073       3.28236817       3.33909629      -0.03695744       0.30105901       0.21793815
Nb       1.63159831       5.00688519       4.92735974       0.38986683       0.13498369       0.25409639
Nb       3.29037413       0.08618986      -0.03754244      -0.31199300      -0.21642196      -0.03808748
Zr       5.09522809       1.63623314       1.62096053      -0.79325670       0.22942935       0.48109478
Nb       3.36485990       0.02897199       3.48163854      -0.26687229       0.01804139      -0.18728966
Nb       5.08269514       1.59644623       5.14624477      -0.48883143       0.37441602      -0.55137944
Nb       3.30378743       3.44249881       0.08325198      -0.33467695      -0.10684776      -0.39838541
Zr       5.05338975       5.08414712       1.68511288      -0.42816618      -0.14455318       0.17265692
Ti       3.29626141       3.35065448       3.41093147       0.09288076      -0.06220766       0.06294279
Nb       5.07763804       5.00607610       4.96548542      -0.40457374      -0.04125594       0.12227269
16
Lattice="6.720000000000001 0.0 0.0 0.0 6.720000000000001 0.0 0.0 0.0 6.720000000000001" Properties=species:S:1:pos:R:3:forces:R:3 group=TiZrNb2_rattle05_b0 composition=TiZrNb2 energy=-145.2611541748047 pbc="T T T"
Nb      -0.01522114       0.06440123      -0.04551506      -0.41906595      -0.26779476       0.57505816
Ti       1.70023701       1.66817144       1.58214973      -0.05745023      -0.01155000       0.33819926
Zr       0.03723894      -0.00158298       3.39522269      -0.41745764       0.12246534      -0.70767957
Zr       1.62570751       1.70480685       5.03690669       0.22341111       0.23747745      -0.08261540
Nb       0.03124254       3.29427116       0.02505002      -0.48639548       0.31099799       0.20538209
Ti       1.73543275       5.08667295       1.58446202      -0.21296503       0.07963961       0.40047842
Nb       0.03775202       3.37183561       3.28855250      -0.31240374      -0.06365979      -0.20834158
Zr       1.70824818       5.12360635       5.03787110      -0.23008484      -0.35855204      -0.08163165
Nb       3.32481873      -0.02518903      -0.02057095       0.46794420       0.27280423       0.40876693
Ti       4.93286381       1.68794228       1.65901054       0.30643287      -0.06327070       0.09641875
Nb       3.38587096       0.12591036       3.38091416       0.21989799      -0.20133370      -0.48938745
Ti       5.04825763       1.64527505       5.06345366      -0.08022510       0.25974607      -0.05096679
Zr       3.33953683       3.40903745       0.06843966       0.45662987      -0.23483863       0.03575746
Nb       5.08952133       5.03678641       1.71224555      -0.00774923       0.10256101      -0.10088146
Nb       3.39635874       3.41432534       3.39725661       0.14031796      -0.10028513      -0.41111964
Nb       4.95337381       5.06637836       5.02800171       0.40916303      -0.08440696       0.07256259
16
Lattice="6.720000000000001 0.0 0.0 0.0 6.720000000000001 0.0 0.0 0.0 6.720000000000001" Properties=species:S:1:pos:R:3:forces:R:3 group=TiZrNb2_rattle05_b0 composition=TiZrNb2 energy=-145.07412719726562 pbc="T T T"
Ti      -0.09096800       0.08373255      -0.08648061       0.64566201      -0.30705351       0.36930412
Nb       1.67939132       1.66727730       1.72094987       0.32891056      -0.10247879      -0.59230345
Zr      -0.00603619       0.06427739       3.36996927       0.33999383      -0.30870083      -0.22543536
Nb       1.59431068       1.67548387       5.07997693       0.61526620       0.09852430       0.37299699
Ti      -0.05328320       3.30136198       0.05898982       0.55037498       0.14786047      -0.28539562
Ti       1.71177525       5.05280153       1.70889231       0.11520264       0.12572366      -0.45991236
Zr       0.03869200       3.29893752       3.31271604       0.15777618       0.31281918       0.17940027
Nb       1.70529705       5.08192257       5.00118317       0.31547540      -0.12016111       0.55414546
Nb       3.44169787       0.01892866       0.02497907      -0.61882192      -0.22677463      -0.09940836
Nb       5.03306061       1.70221491       1.63028672      -0.28580010      -0.08082608      -0.08204873
Nb       3.42120898      -0.01771032       3.29835976      -0.43425673       0.04876916       0.18709776
Zr       4.98736091       1.68273373       5.08922409      -0.45860496       0.33346507      -0.07103714
Ti       3.34822543       3.33537662       0.02873217      -0.39796221       0.19641337      -0.18332034
Zr       5.09351170       4.96912505       1.65650466      -0.22269960       0.25553694      -0.35967466
Nb       3.30518766       3.40872174       3.26736705      -0.10713533      -0.13530464       0.29765135
Nb       5.15465537       5.06563152       5.01090895      -0.54338121      -0.23781246       0.39794025
16
Lattice="6.720000000000001 0.0 0.0 0.0 6.720000000000001 0.0 0.0 0.0 6.720000000000001" Properties=species:S:1:pos:R:3:forces:R:3 group=TiZrNb2_rattle10_b1 composition=TiZrNb2 energy=-144.49789428710938 pbc="T T T"
Nb      -0.04409059      -0.10723109      -0.05617920      -0.14238475       0.61911553       0.43509644
Ti       1.57887466       1.60280420       1.82355142      -0.29418594      -0.30105647      -0.57810730
Nb      -0.08551456       0.05627218       3.34815912       0.27015209      -0.39797789      -0.04523334
Nb       1.55947104       1.87073248       5.26175028       0.29413813      -1.31948125      -0.81662256
Nb       0.12702324       3.44472552      -0.07015832      -1.00203288      -0.32888466       0.57310003
Zr       1.74245967       4.96349377       1.65771972      -0.32572526       0.74314958       0.35107726
Nb       0.05003158       3.35992982       3.38161961      -0.33801329       0.31113487       0.06628775
Nb       1.64032520       5.10749705       5.17484690       0.08241367       0.38842785      -1.05495954
Nb       3.32486807      -0.09290228      -0.12883284       0.12179205       0.41589397       0.66923070
Nb       4.95152590       1.83057722       1.85168862       0.96382421      -1.02091312      -0.99627018
Ti       3.43446533       0.02996022       3.21768208      -0.37575442      -0.31854627       0.23522374
Zr       4.98744727       1.58326038       5.01067568       0.27186298       0.17753845       0.34576398
Zr       3.42638055       3.28408325       0.02676768       0.13021672       0.10477984      -0.21474136
Ti       5.20106217       4.95816706       1.55619572      -0.17762905       0.46903080       0.30750966
Zr       3.28403150       3.28519441       3.23650051      -0.00399416       0.59794748       1.00197268
Ti       4.90417277       5.08520493       5.02728019       0.52532041      -0.14015912      -0.27932811
16
Lattice="6.720000000000001 0.0 0.0 0.0 6.720000000000001 0.0 0.0 0.0 6.720000000000001" Properties=species:S:1:pos:R:3:forces:R:3 group=TiZrNb2_rattle10_b1 composition=TiZrNb2 energy=-144.21759033203125 pbc="T T T"
Nb       0.01474164       0.01102267       0.14099747      -0.90650958       0.52954262      -0.69386739
Nb       1.83466844       1.61396781       1.62813211      -0.13293734       0.18921727       0.28816745
Nb       0.10090723      -0.02626870       3.17527123      -0.75758952       0.83321369       0.90695393
Zr       1.61020768       1.72584510       5.12715822      -0.55949402      -0.06204250      -0.63069069
Nb       0.08281082       3.48646584       0.07854289      -1.11642301      -1.00600767      -0.44620690
Zr       1.57587270       5.01137634       1.59108351       1.66931665       0.47925481       0.03341103
Nb       0.07755253       3.50584543       3.26337248      -0.74980909      -1.09794617       0.52007270
Zr       1.63852366       5.12707791       4.95106986      -0.24830300       0.11928451       0.40778399
Ti       3.20000975       0.14024695      -0.15134604       1.24444044      -0.46295816       0.62594843
Ti       5.11829096       1.64889871       1.75587965      -0.12109731       0.13474452      -0.34863722
Nb       3.49044862      -0.10775518       3.43942101       0.27753705       0.66223156      -0.28491876
Nb       4.95136902       1.81858581       5.05749758       0.72363555      -0.58702856       0.27906424
Ti       3.24307648       3.42306975      -0.10372387       0.77853912      -0.13942602       0.67156929
Nb       5.13329221       5.05142651       1.78516018      -0.81214672       0.09091903      -0.73356295
Zr       3.40041833       3.41412236       3.46238890       0.24104512      -0.43707669      -0.75225335
Ti       5.03476885       4.91765093       5.13246206       0.46979582       0.75407839       0.15716596
16
Lattice="6.720000000000001 0.0 0.0 0.0 6.720000000000001 0.0 0.0 0.0 6.720000000000001" Properties=species:S:1:pos:R:3:forces:R:3 group=TiZrNb2_rattle10_b1 composition=TiZrNb2 energy=-144.84365844726562 pbc="T T T"
Zr      -0.03443805       0.08180250       0.16025425       0.17518482       0.11130998      -0.49767533
Nb       1.85339703       1.70759016       1.82186944      -0.79484087       0.88808590      -0.55727965
Nb      -0.00819764      -0.03807179       3.27083888       0.35331121       0.58353513       0.27922863
Nb       1.76512720       1.70926858       5.09720124      -0.25940204       0.26412004      -0.04136915
Zr      -0.07896945       3.45106377      -0.04524564       0.57581031      -0.45682603       0.26013100
Nb       1.83688543       5.12956065       1.67288085      -0.22192830      -0.80287409      -0.05359988
Nb       0.00774042       3.38659136       3.43803982       0.55612880      -0.45992434      -0.40457135
Ti       1.70947251       5.16568839       5.11706990       0.07491288      -0.26464987      -0.21100056
Nb       3.31970337       0.10908504       0.05722868       0.27282155      -0.34799659      -0.37425053
Nb       4.95728481       1.66253743       1.58136417       0.33455640       0.59227252       0.38574547
Zr       3.34791081       0.05379566       3.26670385       0.13823068      -0.37721908       0.50062907
Ti       4.85449835       1.72120547       4.90669694       0.62929124      -0.06510872       0.21869744
Ti       3.50070082       3.40746819      -0.08481326      -0.54163837       0.09150924       0.36315310
Ti       5.19192267       4.94224148       1.78682733      -0.50155020       0.12341368      -0.34500453
Nb       3.42289805       3.42482230       3.39332006      -0.45007914      -0.03461474      -0.18514335
Zr       5.11704878       5.10249612       4.86666848      -0.34080964       0.15496725       0.66230971
16
Lattice="6.720000000000001 0.0 0.0 0.0 6.720000000000001 0.0 0.0 0.0 6.720000000000001" Properties=species:S:1:pos:R:3:forces:R:3 group=TiZrNb2_rattle10_b1 composition=TiZrNb2 energy=-144.52850341796875 pbc="T T T"
Ti       0.13974364      -0.15267725      -0.04014543      -0.43697658      -0.09174249       0.40684015
Nb       1.60921879       1.66632218       1.62414694       0.16418441       0.16842276       0.13401370
Ti      -0.17027255       0.13531334       3.22285966       0.37223482      -0.74690020       0.15573965
Zr       1.72535059       1.72467321       5.10869452      -0.44802785      -0.33299249      -0.18217185
Ti       0.02134981       3.33626478       0.04338653       0.34665003       0.97594887       0.13041167
Nb       1.78827152       5.18705892       1.76776572      -1.00975418      -0.93633735      -0.42031708
Nb       0.01832075       3.16257809       3.30885614      -0.01501504       1.10789061      -0.02680868
Ti       1.50014309       5.17957696       5.04762097       0.20666978      -0.68460226      -0.20397373
Nb       3.46872524       0.01448735       0.00933632      -0.69094884      -0.57435566      -0.19191681
Zr       5.01479285       1.77037773       1.51516664      -0.03483182      -0.08710217       0.70938551
Zr       3.37464836      -0.14680072       3.35708944       0.03702170       0.59929150       0.40108737
Zr       5.13283787       1.70516845       5.23920034       0.12554267      -0.22087371      -0.82654917
Nb       3.27823149       3.32769809      -0.05107080      -0.35146096       0.93548089       0.40503770
Nb       4.83993908       5.06132082       1.57561605       1.13043427      -0.50042272       0.14829209
Nb       3.31946665       3.27409211       3.48608723      -0.05037649       0.46364018      -0.56601298
Nb       4.94262330       4.96753338       5.07294462       0.65465337      -0.07534628      -0.07305755
16
Lattice="6.720000000000001 0.0 0.0 0.0 6.720000000000001 0.0 0.0 0.0 6.720000000000001" Properties=species:S:1:pos:R:3:forces:R:3 group=TiZrNb2_rattle18_b2 composition=TiZrNb2 energy=-143.38330078125 pbc="T T T"
Zr      -0.10119077       0.27936904      -0.09571038       0.11788756      -0.80881840      -0.38741535
Nb       1.80147328       1.77599078       1.80636329      -1.09917665       0.56931186      -0.41263586
Nb       0.07964910      -0.06322149       3.24317160      -0.94168025       0.96455240       1.71499646
Nb       1.46538057       1.95295585       5.11134511       1.30339074      -1.07957697      -0.21912625
Ti      -0.18510588       3.21295766      -0.24214690       0.04918915       1.41610563       1.49978852
Zr       1.44879350       5.26197295       1.57409311       0.76021898      -1.92070889       0.22100589
Nb       0.15829098       3.55807429       3.63494925      -1.02163410      -0.14545126      -1.00552619
Ti       1.75971227       4.92557794       5.34536928      -0.25014126       0.18274572      -1.02058673
Ti       3.08085215      -0.05088991       0.02976874       0.79398775       0.67264718      -0.21622255
Zr       4.91737009       1.67355224       1.67198479       1.01110923       0.16031030       0.47711572
Zr       3.23224489       0.13938255       3.53967009       0.18637002      -1.07997513       0.38506380
Nb       4.70511919       1.79864881       5.31000073       0.70374686      -0.66164470      -1.12325728
Nb       3.33257014       3.36584508       0.11404725      -0.24681687       0.65498686       0.04573605
Nb       4.99618808       5.20609405       1.69278533      -0.22274733      -0.73446065      -0.00819099
Nb       3.60966718       3.19976542       3.41573182      -0.92419904       1.97726536       0.42153460
Ti       5.01329198       5.14291189       5.20644963      -0.21950480      -0.16728923      -0.37228003
16
Lattice="6.720000000000001 0.0 0.0 0.0 6.720000000000001 0.0 0.0 0.0 6.720000000000001" Properties=species:S:1:pos:R:3:forces:R:3 group=TiZrNb2_rattle18_b2 composition=TiZrNb2 energy=-139.98619079589844 pbc="T T T"
Ti      -0.25072728       0.07880393      -0.34764861       0.93503243       1.22808719       2.67453122
Nb       1.93022973       2.21900168       1.82714242      -0.24031729      -3.48256326      -0.96624345
Nb      -0.01986803       0.28298245       3.40327522       1.06278062      -1.08256650      -1.69576776
Ti       1.76471429       1.82428839       4.76573982       0.49330822      -0.40735307       0.84054196
Zr       0.10887833       3.63681734      -0.03955312      -1.29774404      -2.76459289      -0.24804853
Zr       1.69503118       5.02189760       1.49925626      -1.45187092       0.79299152       3.21054316
Ti       0.06605290       3.23081521       3.12174898      -0.04487872       1.67553973       1.60886645
Zr       1.50148102       5.11456167       5.01202310      -0.19133580      -1.68892884      -3.00360084
Nb       2.98852342      -0.51051246      -0.16828186       3.57361507       4.61915922       0.38728485
Nb       5.15329934       1.90181422       1.95731563      -0.80256343      -2.51024079      -2.55276704
Nb       3.32466797      -0.34216444       3.49775170       0.09700274       2.16297102      -1.42702532
Nb       5.09741420       1.55147120       4.87162666      -1.52905297       1.45789337       0.80399334
Nb       3.47518564       3.19839675      -0.00429572       0.39770365      -0.39103466      -1.36709785
Nb       4.89801705       4.93138796       1.59181706       1.14745021       1.70358729      -0.20594609
Ti       3.62317304       3.47849548       3.18551478      -0.85604149       0.21808353       2.26657152
Zr       5.22218203       5.11729060       4.89422519      -1.29308808      -1.53103375      -0.32583565
16
Lattice="6.720000000000001 0.0 0.0 0.0 6.720000000000001 0.0 0.0 0.0 6.720000000000001" Properties=species:S:1:pos:R:3:forces:R:3 group=TiZrNb2_rattle18_b2 composition=TiZrNb2 energy=-141.005859375 pbc="T T T"
Nb      -0.09341736       0.05718483      -0.33919675      -0.19859207       1.03278434       2.49222565
Zr       1.40748413       1.88701421       1.85759736       2.17086124      -2.52378869      -4.52789831
Zr       0.32245896       0.10523942       3.30393087      -2.84010553      -1.33670855      -0.31800687
Ti       1.28432231       1.91192456       5.07062365       1.71947527      -0.71335256       0.64746082
Nb       0.22949112       3.53810282       0.05726039      -2.23123264      -1.29607892      -1.81845188
Nb       1.74316480       4.98823622       1.30545359       1.13939047       1.62345123       1.27370429
Nb       0.24756662       3.35558506       3.30642285      -2.86193180       2.04257011       2.62696242
Zr       1.52017550       5.22415533       5.01888681       2.15861821      -0.87322503      -0.06299457
Ti       3.52654938       0.07134400      -0.05891749      -1.13934398      -0.56518948       0.49577314
Ti       4.88796704       1.70626356       1.54625587       0.57612693      -0.23015308       0.73591018
Nb       3.13913805       0.09430529       3.19124637       1.46626258      -0.31011382       0.31172845
Ti       4.80329692       1.60636277       5.08490655       0.78464305       1.11960840      -1.42173839
Nb       3.29866386       3.08329004      -0.07919985       0.36449692       0.95337725      -0.39755264
Zr       5.27489060       4.59884656       1.80076591      -1.89399076       2.14533401      -0.43163094
Nb       3.01770690       3.42202461       3.25930594       2.09665084       0.38390365       1.18848026
Nb       5.10786627       5.23791946       5.08732691      -1.31133032      -1.45241821      -0.79397154
16
Lattice="6.720000000000001 0.0 0.0 0.0 6.720000000000001 0.0 0.0 0.0 6.720000000000001" Properties=species:S:1:pos:R:3:forces:R:3 group=TiZrNb2_rattle18_b2 composition=TiZrNb2 energy=-140.3146209716797 pbc="T T T"
Nb       0.19413266       0.05103220      -0.07363524      -0.45030472      -0.55551451       0.61975229
Nb       1.80748048       1.76533170       1.53203402       0.40001068      -0.20275144       1.69741642
Nb       0.04675098       0.12543359       2.90396168       2.71924973      -1.53852355       2.40787077
Ti       1.80701346       1.35691832       5.09409518      -1.69671798       2.45272923      -2.53925633
Ti       0.18049710       3.18038587       0.00109210      -0.43701422       0.96570504       0.25909060
Nb       2.10842357       5.00369090       1.82804279      -1.74009645      -0.00115881      -1.98540235
Zr      -0.08019955       3.40594698       3.53195542       0.90850782       0.63842028      -0.56973743
Zr       1.91283995       5.11611985       4.93110819      -2.24631310      -0.90489471       1.35245252
Zr       3.39159354       0.15601560      -0.27931846       0.76155901      -2.09273410       4.23012352
Nb       5.23108504       1.65225121       2.06538808      -2.25818419       1.78809381      -2.66997313
Nb       3.66177109      -0.28631255       3.41555525      -2.57267570       3.35967851      -2.05342722
Zr       4.99512078       1.60788178       5.09953014       1.90218377       1.49977303      -1.08917069
Nb       3.43854534       3.03892052      -0.00245735       0.36695096       2.43935871       0.38693646
Ti       5.02034354       5.46011960       1.64981459       0.64883822      -2.36882091      -1.82604384
Ti       3.40931248       3.66513609       3.44569945       1.02260554      -2.52035809      -0.39722064
Nb       5.11046891       5.42135441       4.89787177       2.67139935      -2.95900178       2.17659092
54
Lattice="10.080000000000002 0.0 0.0 0.0 10.080000000000002 0.0 0.0 0.0 10.080000000000002" Properties=species:S:1:pos:R:3:forces:R:3 group=TiZrNb2_rattle10_b9 composition=TiZrNb2 energy=-487.1214904785156 pbc="T T T"
Nb      -0.01110660       0.25629467       0.07902241      -0.70528048      -0.90587801      -0.78203523
Zr       1.56731241       1.66218900       1.68226790       0.58483583       0.18920636       0.39068243
Nb       0.18379203      -0.11249748       3.33810425      -0.67568773       0.44721156       0.35445404
Nb       1.84297820       1.64829226       4.96339260      -0.26999009       0.07705839       0.11038113
Ti      -0.02793214       0.05192027       6.59580071       0.11813828      -0.00043475       0.49453324
Ti       1.67201748       1.65078935       8.21186344       0.21633093      -0.14973849       0.18344399
Nb       0.20053678       3.33545472      -0.09347440      -1.04356158      -0.21167406      -0.18434146
Zr       1.64533875       5.01693757       1.64151702       0.09508565      -0.39414093      -0.10974237
Ti       0.13410940       3.42063138       3.29814283      -0.63188529      -0.13936931       0.60239828
Ti       1.61610076       5.08891517       5.05803129       0.17112185      -0.18546027      -0.19735824
Zr       0.08037456       3.40048259       6.73166630      -0.44606376      -0.50162154      -0.35087612
Zr       1.67470735       5.09667641       8.25752397      -0.31700623      -0.29129255       1.04328251
Nb      -0.17641085       6.72192190      -0.15263294       0.57466495       0.19735011       0.36415562
Zr       1.69896446       8.28662572       1.77297452      -0.32656935       0.81792039      -1.00429058
Zr      -0.05881337       6.77519339       3.26590575      -0.15696871      -0.68094015       0.77422619
Ti       1.70464566       8.37345738       5.21751115      -0.08919655       0.31791317       0.08226448
Nb       0.05331924       6.63358995       6.80980841      -0.42971829       0.65264922      -0.53963435
Ti       1.70290586       8.57497791       8.42645550      -0.25409535      -0.12111073      -0.21701926
Zr       3.48420416       0.15839453      -0.08043903      -0.25503081      -0.47215277      -0.16984612
Ti       4.99336816       1.77520378       1.59122381       0.55491078       0.05654640       0.58514208
Nb       3.39221539      -0.05259045       3.38459991       0.10914002       0.73092592       0.06802336
Ti       5.06253826       1.65048345       5.12649422       0.38201550       0.40021709      -0.43779665
Nb       3.50070678       0.15018675       6.57511713      -0.44783932      -0.23862752       0.67129743
Nb       5.10501049       1.84056830       8.45116200      -0.18257190      -0.66987002      -0.67005670
Nb       3.40500099       3.26484403      -0.09891426      -0.11856782       0.14923584       0.28831923
Nb       4.97671135       5.12179031       1.69508670       0.46983674      -1.15875566      -0.03125773
Ti       3.38359809       3.31924880       3.45683022       0.25323528       0.05260639      -0.08196763
Nb       5.05458036       4.97239559       4.97606580       0.16041631      -0.13988192       0.42193896
Nb       3.42907729       3.53222117       6.75024027       0.00120717      -1.03988624      -0.68275058
Nb       4.76928923       5.08559652       8.37728660       2.09962702      -0.25533426      -0.37157679
Zr       3.49383246       6.60481173       0.00508162      -0.77656209       0.85102826      -0.34850436
Zr       5.01907575       8.25856274       1.78304250       0.69938272       1.35480285      -0.83908969
Zr       3.31933212       6.77901021       3.40007840      -0.37336332      -0.89431709       0.72761595
Zr       4.93295143       8.34882800       4.99721762       0.39293873       0.25990587       0.82290971
Nb       3.24921124       6.61041133       6.75946646       0.36594677       1.05015564      -0.57922924
Nb       4.95888008       8.39851328       8.35126560       0.58238465       0.33685324      -0.18598233
Nb       6.83543953       0.20853413       0.05895177      -0.00897881      -0.82928348       0.00023381
Nb       8.30587634       1.79811233       1.84087075       0.26595229      -0.48862559      -0.29601845
Nb       6.82643078      -0.14761279       3.48521927      -0.02726105       1.05726624      -0.54262143
Nb       8.67927308       1.76060632       4.98672181      -0.72313309      -0.16478586      -0.19467583
Nb       6.72755653       0.06649626       6.63608594       0.15450686      -0.06184897       0.47241724
Ti       8.15025147       1.67612690       8.35978168       1.21005166      -0.42766947       0.17049007
Nb       6.70693484       3.37778365      -0.26134357      -0.07197630       0.37732607       1.07194829
Zr       8.24651221       4.93272102       1.66215384       0.32897371       0.15005475      -0.31314775
Nb       6.69290542       3.43038657       3.26238154      -0.38999817      -0.68767643       0.66292715
Nb       8.21236627       5.02726434       5.16094008       0.14307825      -0.05759913      -0.18095340
Ti       6.79020601       3.24467366       6.87623529      -0.42321149       0.58843464      -0.97615337
Nb       8.40601451       4.98298546       8.39728072      -0.52190530       0.26326507      -0.14951050
Nb       6.82267417       6.88490831      -0.01036543      -0.33759242      -0.33099356      -0.42507857
Ti       8.47462087       8.31179291       1.70839014      -0.42966378       0.89314187      -0.46764344
Nb       6.57660777       6.73103708       3.31841227       0.88849944      -0.47855550       0.33385751
Zr       8.49165676       8.36063764       5.06316649      -0.24293256       0.03096513       0.36758822
Ti       6.55678486       6.80935614       6.68356358       0.24958189      -0.48811474       0.45689157
Ti       8.48301623       8.15574866       8.36403345      -0.39525127       1.16359901      -0.19226451
54
Lattice="10.080000000000002 0.0 0.0 0.0 10.080000000000002 0.0 0.0 0.0 10.080000000000002" Properties=species:S:1:pos:R:3:forces:R:3 group=TiZrNb2_rattle10_b9 composition=TiZrNb2 energy=-486.1800537109375 pbc="T T T"
Nb       0.13463653      -0.01306248       0.06591348      -0.68037558      -0.30646527      -0.27753299
Zr       1.54574928       1.80865428       1.72690589       0.68565595      -1.19849944      -0.49947301
Zr      -0.00952572      -0.07248207       3.37970980      -0.39380386       0.05498639      -0.39364064
Zr       1.82162084       1.64052666       5.05127714      -1.46020019       1.05049837      -0.64318419
Zr       0.07736363      -0.09174513       6.78246636      -0.39016908       0.14953390       0.34348235
Nb       1.71322570       1.73410622       8.40546000      -0.28045547       0.33175364       0.51234972
Ti      -0.20862288       3.35293613       0.16583654       0.53015900       0.12445641      -0.70464969
Zr       1.82740836       4.91933225       1.84874657      -0.57647574       0.82631773      -1.12815952
Nb      -0.02303250       3.28363898       3.15401435      -0.83739382       0.70967138       1.42057133
Nb       1.66218297       5.12679693       4.91295498      -0.28700083      -0.26681900       0.80148703
Nb      -0.13804693       3.43814380       6.90569742       0.56342268       0.08523568      -0.53965998
Nb       1.58581733       4.99675837       8.31448202       0.38267839       0.15623273       0.39041924
Nb       0.01799672       6.76482508       0.00810761      -0.06281918       0.20108280      -0.15768780
Nb       1.57719430       8.30502601       1.81967634       0.06999967       0.39409232      -1.07913804
Ti      -0.03711536       6.85920777       3.39742930      -0.07349497      -0.63532847       0.39118490
Ti       1.70346778       8.59143857       4.94505094      -0.32513994      -1.18803310       0.09515908
Nb      -0.01689822       6.76876707       6.76487685      -0.00201001      -0.29766372      -0.11821786
Ti       1.67970703       8.48768841       8.44009858       0.17474873      -0.61110204       0.52577639
Nb       3.26581473       0.00624302       0.13453862       0.35498047      -0.36235535      -0.36596635
Nb       5.03375909       1.49189343       1.69649949      -0.05033322       0.74815190      -0.27892095
Ti       3.41030126       0.01893989       3.37251071      -0.20575503       0.07461211      -0.79286265
Nb       4.89367140       1.60913496       5.15905809       0.94081593       0.85717571      -0.52688831
Zr       3.18590471       0.04735066       6.58884635       0.94730014      -0.82482117       1.81407011
Nb       5.06765831       1.59960976       8.32161461      -0.54051119       0.25781131       0.60363507
Nb       3.23890236       3.23374827       0.11631287       1.11682820       0.45136917      -1.05318511
Nb       5.13501548       4.96267364       1.77610801       0.06089453      -0.19913517      -0.46298805
Nb       3.40422986       3.23481777       3.35206021       0.79746681       0.46143097       0.27315935
Nb       5.13716092       5.05398848       5.18938375      -0.79214984       0.10703486      -0.68911004
Nb       3.28839251       3.28941443       6.55206727       0.27353746       1.17820048       1.09900033
Ti       5.10794938       4.94962479       8.30836674      -1.40016985       1.11980772       1.15363348
Ti       3.51686546       6.73355472      -0.17888490      -0.30413553      -0.21616450       0.18051119
Nb       4.93685626       8.19630061       1.80201760       0.44490492       0.84830350      -1.25334811
Zr       3.26699504       6.82030262       3.23362090       0.28632662      -0.87296414       1.04653263
Zr       4.87390614       8.49560437       5.00925315       0.24012750      -1.04022169       0.41699353
Ti       3.19755586       6.82577180       6.72320005       0.15247539      -0.51389205       0.14453800
Nb       5.21637575       8.40578450       8.50903647      -1.17977023      -0.60394436      -0.36308396
Zr       6.81313449      -0.06677742      -0.11110261      -0.00045657       0.46083933       1.03103495
Ti       8.39378296       1.72109861       1.66232556      -0.37691075      -0.09510524      -0.12406372
Zr       6.63157202       0.00696100       3.44389792       0.29341942      -0.05175275      -0.63873821
Zr       8.43078012       1.63362394       5.15534854      -0.04907137       0.81089377      -0.13470620
Zr       6.74004510      -0.22647390       6.66626357      -0.41838330       0.81234306       0.12503514
Nb       8.35606266       1.69431434       8.42488998       0.44138169       0.00595811       0.34958547
Nb       6.74121651       3.46695228      -0.01744317      -0.55441296      -0.42208651       0.81533027
Nb       8.54745314       5.19432099       1.82245942      -0.55526090      -0.20595065      -0.13933943
Ti       6.71137404       3.22661021       3.42350306      -0.19078539       0.47198695      -0.17756468
Nb       8.35222747       5.01301122       5.00118148       0.45687708       0.31280595      -0.08215103
Zr       6.66023911       3.58984064       6.95627326       0.76371819      -1.31568813      -1.25345445
Nb       8.43534153       4.87977370       8.69088206       0.21165141       1.37780929      -0.46773735
Nb       6.83204334       6.93509689       0.01450187      -0.13816637      -1.02208948      -0.04056664
Ti       8.30326923       8.26233716       1.89337949       0.23379679       0.11346925      -0.57426691
Nb       6.56350130       6.69099217       3.35648289       0.65110028      -0.25098923       0.30026042
Ti       8.41734700       8.44278881       5.04517585       0.02722803      -0.86965942      -0.12729149
Ti       6.76946395       6.70051737       6.62054022       0.15964399      -0.07023108       0.41981646
Ti       8.32625841       8.51391118       8.21989938       0.86447102      -1.11290371       0.83400995
54
Lattice="10.080000000000002 0.0 0.0 0.0 10.080000000000002 0.0 0.0 0.0 10.080000000000002" Properties=species:S:1:pos:R:3:forces:R:3 group=TiZrNb2_rattle10_b9 composition=TiZrNb2 energy=-487.9910888671875 pbc="T T T"
Ti      -0.00239162      -0.08675588       0.06232225      -0.16090015       0.43683171      -0.17709216
Nb       1.73587404       1.73351238       1.50589117      -0.23641886      -0.17581724       0.61068004
Ti       0.16767505       0.02423792       3.43138544      -0.11148220      -0.26949194      -0.48102504
Nb       1.53592350       1.65989480       5.10651568       0.66168916       0.17146881      -0.58201849
Ti       0.18251521       0.05407351       6.55802585      -0.58965290      -0.05696329       0.63865221
Ti       1.78145339       1.75699981       8.32994935      -0.69485664      -0.31761044       0.54276323
Ti       0.11532576       3.46544895      -0.07704714       0.05836657      -0.75525278       0.36529064
Nb       1.83469695       5.00599519       1.66141043      -0.65616101      -0.18414447       0.02954184
Ti       0.06730293       3.31314677       3.61016649       0.08455992       0.38451251      -0.78505552
Ti       1.80842374       5.15507581       4.70238099      -0.29794139      -0.53189719       1.15382445
Nb       0.02186899       3.50011777       6.68665143       0.33067316      -0.29236305      -0.15117346
Ti       1.70207773       4.87631364       8.51183729       0.29028702       0.57431632      -0.23524034
Zr      -0.08284931       6.74119181      -0.02995360       0.88540572       0.08384538       0.62238604
Nb       1.72468529       8.54330009       1.66776041      -0.17582664      -0.23677504       0.12657170
Nb       0.02270226       6.59179852       3.50385021      -0.02520731       0.61753970      -0.81509143
Nb       1.74942962       8.33280704       4.94204386      -0.50704038      -0.03963756       0.29173958
Nb      -0.09894063       6.58419093       6.84250651       1.07896852       0.41679680      -0.88862216
Zr       1.64214396       8.55058927       8.38820143       0.14664209      -0.38100791       0.08298774
Nb       3.55488781       0.07336924      -0.02660495      -0.60695720      -0.49224544       0.07892781
Zr       5.11221552       1.60445785       1.62547753      -0.36575335      -0.09066692       1.12386465
Nb       3.36617217      -0.15828865       3.41915015       0.02661146       0.84988493      -0.10595451
Ti       5.15617448       1.70198948       5.04230441      -0.12592112      -0.17947854      -0.08936967
Zr       3.38320734      -0.01978779       6.71391567       0.46257722       0.04560089      -0.18749106
Nb       5.07065221       1.74688565       8.42056312       0.07288117      -0.50302422      -0.79132015
Nb       3.43086075       3.22347390       0.00606770      -0.56165469       0.35619280       0.03468490
Nb       4.79506354       4.94078491       1.81809796       0.55844718       0.16803327      -0.55015969
Nb       3.39363682       3.34179044       3.44538918      -0.17140785      -0.51381826       0.00284060
Ti       5.15126809       4.95622881       5.02498072      -0.40216276       0.06362740       0.47274944
Zr       3.30681618       3.27594900       6.72858800       0.14077184       0.52905899      -0.56590182
Zr       4.95641647       5.10164326       8.47829472       0.02365935       0.17166719      -0.06163877
Ti       3.26772269       6.73694157       0.16832177       0.25293764       0.19070905      -0.23227119
Ti       5.02932663       8.43300085       1.89141270       0.00177646      -0.04178217      -0.87974310
Nb       3.29819066       6.68611371       3.29187911       0.23910481       0.35119620       0.06847496
Nb       4.98760680       8.31301589       5.03327604      -0.11020952       0.06519943       0.29923141
Nb       3.24717460       6.67527547       6.68229372       0.04459640      -0.15253258      -0.07924135
Ti       4.96477455       8.31230244       8.46019444       0.17380297       0.23410805      -0.11069509
Nb       6.64828377       0.05713347      -0.10383984       0.36914521      -1.10815454      -0.09968854
Zr       8.39158811       1.65530657       1.63498533       0.73804992      -0.28671673       0.36082608
Nb       6.78617747      -0.12835221       3.45348320      -0.46874690       0.34880057      -0.62272495
Zr       8.39178981       1.70092372       5.02750823       0.08778322       0.21564138       0.23403654
Nb       6.79296333      -0.06433472       6.57083991      -0.94931579       0.66496527       1.31656444
Nb       8.32524506       1.68273912       8.43077780       0.85347784      -0.51846707      -0.49317339
Zr       6.67037330       3.21602498      -0.03448234       0.05495048       0.85003901       0.05324258
Zr       8.20408970       5.02165836       1.59356378       0.66205698      -0.14765474       0.57981849
Nb       6.73503710       3.38251894       3.45533117      -0.20566529      -0.14408760       0.08240101
Nb       8.43611025       5.23486047       4.97191525      -0.20231855      -0.77195513       0.51720762
Ti       6.83334452       3.39561838       6.78545448      -0.23386611       0.00509504      -0.36992106
Zr       8.55222065       4.98974844       8.41596457      -0.89884305      -0.26268098      -0.32714087
Nb       6.83458324       6.81384120      -0.17323101      -0.95943081       0.24231637       0.69014740
Nb       8.37558471       8.33945348       1.62831813       0.08332658       0.49937174       0.39314538
Zr       6.51726247       6.61786811       3.38169390       0.46047193       0.45446599      -0.21161047
Zr       8.32400394       8.50461699       5.16756766       1.21127629      -0.92241275      -0.77378422
Nb       6.64252249       6.87981111       6.83055597      -0.21952103      -0.58859861      -0.27458262
Nb       8.45229000       8.33836779       8.32386733      -0.11703570       0.97395301       0.16913055
54
Lattice="10.080000000000002 0.0 0.0 0.0 10.080000000000002 0.0 0.0 0.0 10.080000000000002" Properties=species:S:1:pos:R:3:forces:R:3 group=TiZrNb2_rattle10_b9 composition=TiZrNb2 energy=-488.3780517578125 pbc="T T T"
Nb      -0.05395848       0.04368177       0.16934889       0.40227130      -0.61665392      -0.59691840
Nb       1.65198297       1.62640655       1.63868909       0.12560162      -0.09558721       0.56786776
Zr      -0.19412574       0.07697122       3.38602017       1.41435444       0.30348176      -0.25231931
Nb       1.84883587       1.72343011       4.93398794       0.04960654      -0.20305137       0.33090508
Nb       0.14049917       0.00153744       6.70547141      -0.45923585       0.49048811       0.40136153
Ti       1.72460832       1.67090217       8.36400290      -0.22701298      -0.35787326      -0.11505288
Zr       0.04455990       3.36662546      -0.05728716      -0.07220727      -0.16527563      -0.09649610
Nb       1.74361443       4.78401478       1.60692807       0.03177562       0.86777830       0.51015472
Nb       0.11795414       3.35531589       3.49966265      -0.03266647      -0.23068613      -0.52483827
Nb       1.58768816       5.02755097       4.99645695       1.13075650      -0.19326462       0.13989316
Nb       0.08755799       3.34214135       6.71913646      -0.11681826      -0.75869691      -0.34040573
Nb       1.60021709       4.92891610       8.16061010       0.78268653       0.27609733       0.68894106
Ti       0.07901611       6.76465420      -0.23410427       0.07226647      -0.13390377       0.41500729
Ti       1.61135524       8.37420424       1.72953034       0.17316301       0.04719529      -0.50874346
Zr       0.09893811       6.78975384       3.36849154       0.05184180      -0.46955007      -0.70039433
Zr       1.58540656       8.30875262       5.20633077       1.11787140       0.18458961      -0.17456235
Nb       0.01151984       6.49988859       6.79561996      -0.16332209       0.97717756       0.17731629
Nb       1.74073309       8.56865884       8.34332760      -0.25785953      -0.50852609       0.58796346
Nb       3.35456008      -0.04643057       0.14996574      -0.11303514      -0.22433053      -0.17096549
Nb       5.03721529       1.70103914       1.91149197       0.20182687      -0.18212831      -0.28181505
Nb       3.28807697      -0.08691773       3.22121767       0.28396997      -0.04084389       0.40986443
Ti       5.09251366       1.57998071       4.96424076      -0.13282391      -0.02920081       0.26078242
Ti       3.25228071      -0.01665906       6.82187683       0.60759377       0.04910775      -0.49578714
Zr       5.07096146       1.61752812       8.40535996      -0.26925266      -0.28339934      -0.23804595
Zr       3.29384883       3.13849668       0.05497761       0.38056540       0.33753902      -0.07810440
Nb       5.11080480       5.04999055       1.59155419      -0.12975152      -0.44024575       0.48127344
Ti       3.46507433       3.42273401       3.43158786      -0.25585508      -0.18059991      -0.24964769
Nb       5.00801289       4.90807435       4.93335140      -0.09720470       0.42310604       0.69112712
Ti       3.38013019       3.24797056       6.62859358       0.00273269       0.18110007      -0.12789147
Zr       5.18781007       4.88178170       8.53575378      -0.49052945       0.40165174      -0.73539418
Zr       3.42241843       6.61138104       0.07450604      -0.55703968       0.42816254      -0.14889358
Ti       5.06753489       8.38355810       1.58995431      -0.02004126       0.37729886       0.34460789
Ti       3.35758911       6.70938588       3.42849504       0.15986213      -0.00517092      -0.21282764
Nb       5.03963621       8.53302512       5.04153289      -0.09241143      -0.13232850       0.30751824
Ti       3.31992167       6.70913956       6.84822282       0.41184694      -0.05342280      -0.25078160
Nb       5.13990236       8.48625979       8.47969659      -0.36511871      -0.17180741      -0.51207161
Nb       6.69995324       0.00506039       0.02426633      -0.01231772      -0.26404494       0.53174919
Nb       8.44018094       1.61327340       1.74710758      -0.56149977       0.61332238      -0.39938003
Ti       6.92018440       0.16286510       3.35600409      -1.11046934      -0.43090391      -0.10714199
Ti       8.36227430       1.88737503       4.92908473       0.09511934      -0.25681904       0.75782859
Nb       6.85662958      -0.03044622       6.79192286      -0.33523881      -0.19489177      -0.62577426
Zr       8.36943818       1.54733270       8.45013880       0.46092689      -0.07839459      -0.30882967
Ti       6.78428149       3.20147383      -0.00821558      -0.10130251       0.14451589       0.64909697
Zr       8.49577734       4.94561590       1.63765036      -0.20555034       0.20854074      -0.26887673
Nb       6.71475666       3.35241989       3.36868824      -0.09089115      -0.11616509      -0.04570358
Zr       8.47362857       5.06316770       5.03901524      -0.65937829      -0.05303617       0.16342983
Nb       6.76023751       3.29350825       6.79409814      -0.23310255      -0.15039173      -0.82920146
Nb       8.31153009       4.88819388       8.22903945       0.23340954       0.40327600       0.62568140
Nb       6.75052119       6.78693235      -0.03670739       0.01878861      -0.25733501       0.06138904
Nb       8.27772672       8.30952862       1.63374429       0.27298093       0.28012115      -0.37201098
Zr       6.58898377       6.71847321       3.27734083      -0.16025950       0.20648274       0.32684091
Zr       8.52977481       8.55987828       4.92832123      -1.25833261      -0.79177296       1.29228878
Ti       6.70320150       6.66392407       6.85522453      -0.19652259       0.35329369      -0.51259518
Nb       8.39628603       8.22264341       8.48638912       0.29523310       0.51597577      -0.44141811
16
Lattice="6.36783533661135 0.0 0.0 0.0 6.36783533661135 0.0 0.0 0.0 6.36783533661135" Properties=species:S:1:pos:R:3:forces:R:3 group=TiZrNb2_strain_vol_b0 composition=TiZrNb2 energy=-141.8082733154297 pbc="T T T"
Nb       0.00969820      -0.02868601       0.04010931      -0.47945389       0.81559914      -0.21400148
Nb       1.56547817       1.57766189       1.63230924       0.19448082      -0.31115276       0.04543304
Nb       0.02609486      -0.00351232       3.18975618      -0.46862745       0.40874138      -0.01869395
Ti       1.58896238       1.59077410       4.78532317      -0.26579350      -0.10091531      -0.14676732
Nb      -0.00713790       3.20107545       0.02218215      -0.37805080      -0.76826751      -0.07282023
Zr       1.55745467       4.76610118       1.58072306       0.30879176       0.30263942       0.50517786
Nb      -0.03993457       3.17465168       3.14267834       0.02887261      -0.39958650       0.02650458
Zr       1.64675494       4.78310633       4.77839821      -0.59374642      -0.10466651      -0.38369194
Nb       3.19236909      -0.02351745      -0.04180409       0.33820283       0.78128457       0.56817877
Ti       4.76608316       1.57980244       1.60038710       0.04759216      -0.29640770      -0.00305670
Ti       3.15762749      -0.02356399       3.21934287       0.39471173       0.58144546      -0.48455620
Nb       4.75065467       1.60926694       4.72513874       0.16350991      -0.44115135       0.14509465
Zr       3.13438602       3.20333218       0.03390370       0.53723991      -0.75609702       0.02684355
Ti       4.78202456       4.78442650       1.56393660      -0.01164606       0.25326994       0.32248521
Nb       3.20171000       3.17885324       3.15146515       0.04507703      -0.38722652      -0.14671656
Zr       4.79523728       4.74111028       4.76281123       0.13884056       0.42249218      -0.16941297
16
Lattice="6.421334657235316 0.0 0.0 0.0 6.421334657235316 0.0 0.0 0.0 6.421334657235316" Properties=species:S:1:pos:R:3:forces:R:3 group=TiZrNb2_strain_vol_b0 composition=TiZrNb2 energy=-142.81588745117188 pbc="T T T"
Nb       0.01474885       0.03283389       0.00656999       0.05292672       0.17455761      -0.16196829
Nb       1.59172018       1.60708198       1.61601379       0.10685363       0.20505935       0.43660834
Nb      -0.02515814      -0.01010717       3.20217758       0.15488094       0.20375207       0.13853225
Nb       1.58079827       1.60229019       4.76023021       0.20920447       0.15613467      -0.24223761
Nb       0.01362239       3.19608807      -0.00245797      -0.08389264      -0.35478389       0.06063239
Nb       1.62126841       4.78793337       1.59084680      -0.23233521      -0.05823112       0.51093352
Ti      -0.00120373       3.22692012       3.20329694       0.01356310      -0.33171791      -0.18322688
Zr       1.61879626       4.77462582       4.80662008      -0.03404069       0.09645176      -0.25917792
Zr       3.20392132       0.02808085       0.03735622      -0.06037164       0.47126395      -0.31408495
Nb       4.88753036       1.56774609       1.64936656      -0.37660301       0.57160980       0.31175202
Ti       3.20609516      -0.00564214       3.19345397      -0.10044193       0.41545877       0.13383122
Ti       4.86442074       1.62239852       4.81246819      -0.15028483       0.10967717      -0.13628875
Nb       3.19564156       3.18594867       0.03570950       0.18658525      -0.52960682      -0.21093380
Zr       4.78189360       4.83531950       1.57703338       0.31625360      -0.45437953       0.55639148
Ti       3.19808966       3.22092799       3.19177416       0.09479275      -0.51503253      -0.03760347
Zr       4.82814273       4.81441121       4.86623564      -0.09709150      -0.16021293      -0.60315931
16
Lattice="6.720000000000001 0.0 0.0 -0.13524453612247783 6.720000000000001 0.0 0.0 0.0 6.720000000000001" Properties=species:S:1:pos:R:3:forces:R:3 group=TiZrNb2_strain_shear_b0 composition=TiZrNb2 energy=-145.37850952148438 pbc="T T T"
Nb       0.04860701       0.02040201       0.00560176       0.10100670      -0.15246826       0.05507594
Ti       1.70421234       1.67136157       1.68053491       0.05510922      -0.09483225       0.15550436
Ti       0.00439621      -0.00263314       3.35678695       0.03327689      -0.06044058      -0.13961697
Ti       1.64291530       1.69098393       4.99534292       0.21180268      -0.11236600      -0.04416279
Zr      -0.02503959       3.34732989      -0.00226800       0.35265219       0.15621088      -0.01144964
Nb       1.56193399       5.09218167       1.70011417       0.18156154       0.07845003       0.11016037
Zr      -0.04087261       3.36148242       3.28813788       0.16527367       0.03516257       0.10580201
Ti       1.59247767       5.03782858       5.03868288       0.09097910       0.08605444      -0.12098892
Zr       3.36379437      -0.02369207       0.02035368      -0.20299810      -0.08261520       0.03773049
Nb       4.99427397       1.71784815       1.63956711       0.00571287      -0.38114527       0.37491897
Nb       3.38524042      -0.03735422       3.35756015      -0.20936745       0.03640053      -0.09845562
Zr       4.98731321       1.67473049       5.07321226      -0.01082015      -0.14949486      -0.38539732
Nb       3.37487867       3.36982134       0.05227806      -0.53091788       0.11722088      -0.11647006
Nb       4.97355863       5.02042849       1.65873819      -0.07824007       0.34752452       0.19404846
Nb       3.29921955       3.39378789       3.33605503      -0.19092825      -0.00804720      -0.00914013
Nb       4.93362074       5.02262472       5.01913818       0.02589704       0.18438581      -0.10755906
16
Lattice="6.720000000000001 0.0 0.0 0.10542447031566309 6.720000000000001 0.0 0.0 0.0 6.720000000000001" Properties=species:S:1:pos:R:3:forces:R:3 group=TiZrNb2_strain_shear_b0 composition=TiZrNb2 energy=-145.4674072265625 pbc="T T T"
Ti       0.04302578       0.01418862      -0.02634512      -0.19766647      -0.02485735       0.29546046
Zr       1.71413675       1.67754500       1.65975382       0.01427796      -0.01652005       0.07825220
Ti       0.02050300       0.02907097       3.36235281      -0.15713891      -0.02415176      -0.20991868
Nb       1.72756638       1.68726013       5.04284817      -0.04519182      -0.03767387      -0.07939067
Nb       0.10774006       3.40752549      -0.01443704      -0.12708801      -0.08398141       0.33801943
Nb       1.72939783       5.06215888       1.70293720       0.09392965       0.12182950      -0.12157504
Nb       0.06539983       3.42338138       3.43695755      -0.05139664      -0.16613969      -0.43967727
Zr       1.75818380       5.09294503       5.04517454       0.00664818       0.08421955       0.04785726
Ti       3.39022039       0.04311192      -0.02639445       0.01879421      -0.12770809       0.37423283
Nb       5.11673604       1.72661479       1.63467946      -0.08645703      -0.18967646       0.14501171
Ti       3.34456425      -0.01465045       3.35580479       0.13159308       0.09850600      -0.28280231
Zr       5.05021442       1.67969271       5.02805473       0.09084618      -0.15090856      -0.10415179
Nb       3.41730399       3.36772207      -0.01640123      -0.03080833      -0.00322434       0.36838284
Nb       5.11596820       5.00907160       1.72699223       0.03887358       0.28608513      -0.13705948
Nb       3.35809569       3.41239871       3.33337600       0.12015408      -0.15898724      -0.23457347
Zr       5.05531492       4.97039595       5.07904408       0.18063022       0.39318874      -0.03806789
16
Lattice="6.720000000000001 0.0 0.0 0.0 6.720000000000001 0.0 -0.3140844840487701 0.0 6.720000000000001" Properties=species:S:1:pos:R:3:forces:R:3 group=TiZrNb2_strain_shear_b0 composition=TiZrNb2 energy=-145.1291961669922 pbc="T T T"
Zr       0.01864034      -0.01044137      -0.02415310      -0.49555975       0.17714834       0.15920150
Zr       1.66585697       1.69477970       1.59936939       0.14450386       0.29737854       0.33469114
Zr      -0.12575000      -0.03265633       3.37015402      -0.50368369       0.33833420      -0.23860352
Nb       1.40532394       1.64591494       5.08365648       0.49889126       0.40263954      -0.26259321
Nb      -0.01727156       3.37025546       0.00157565      -0.25313565      -0.20460552       0.03039400
Nb       1.54731167       5.07114523       1.66196369       0.55224359      -0.42915672       0.11843331
Nb      -0.23268300       3.36139378       3.37274933      -0.11676417      -0.29666215      -0.10929009
Zr       1.42331191       5.01320560       5.03506106       0.62315029      -0.34527320      -0.01577367
Ti       3.34801838      -0.03730714       0.01227005       0.39552897      -0.00800993      -0.09982923
Ti       4.94487117       1.68856546       1.65273123      -0.18252957       0.13007718       0.08087847
Nb       3.21338931      -0.02182740       3.35316875       0.38047853       0.04183471       0.06173552
Ti       4.82079527       1.66624335       5.06586404      -0.39645451       0.23693648      -0.09077948
Nb       3.37122514       3.37359823      -0.01591930       0.29573369      -0.09366656      -0.05988577
Nb       4.97328033       4.98499260       1.63808469      -0.49627841      -0.11487763       0.18896492
Ti       3.16283530       3.34875083       3.35855367       0.33446902       0.04665387       0.06053125
Nb       4.89338083       4.99792938       5.05157927      -0.78059369      -0.17875110      -0.15807517
16
Lattice="6.720000000000001 0.0 0.0 0.0 6.720000000000001 0.0 0.0 -0.22517125206532515 6.720000000000001" Properties=species:S:1:pos:R:3:forces:R:3 group=TiZrNb2_strain_shear_b0 composition=TiZrNb2 energy=-145.16070556640625 pbc="T T T"
Ti       0.00589540      -0.01146246      -0.01729771      -0.19804484       0.03421161       0.18499422
Nb       1.71001685       1.57653284       1.61664864      -0.35210416       0.33140281       0.18401583
Nb       0.09430561      -0.16515101       3.39740876      -0.46756375       0.03251906      -0.20718835
Zr       1.73056134       1.47962667       5.07227241      -0.52591741       0.32104886      -0.02196872
Nb       0.03377816       3.39490322       0.02078497      -0.42555025      -0.13270459       0.00014175
Zr       1.67108081       4.99446480       1.62303435      -0.11656147      -0.20674965       0.14442424
Ti      -0.03496069       3.31384522       3.36156977       0.03595364      -0.13797444      -0.09288456
Nb       1.68502553       4.84939971       5.09460183      -0.13318564      -0.12896250      -0.13474363
Nb       3.35657936       0.00118709       0.01585646       0.36131993      -0.15647021       0.10697979
Ti       5.02888810       1.65595604       1.68425047       0.24037395       0.06055929      -0.12250656
Zr       3.40139295      -0.11894728       3.36641745       0.19627899      -0.27405253      -0.25364622
Zr       4.97923694       1.47572381       5.01124358       0.58212471       0.34802151       0.24397123
Nb       3.34906388       3.36725987       0.01756564       0.38561255       0.08367653       0.03454144
Nb       5.04369118       4.96639666       1.64575311       0.22134653      -0.05267897      -0.04575966
Nb       3.32506942       3.25696358       3.34284778       0.22750604       0.15665224      -0.07417148
Ti       5.06890497       4.89766641       5.07540900      -0.03158884      -0.27849892       0.05380074
16
Lattice="6.83472961660723 0.0 0.0 0.0 6.83472961660723 0.0 0.0 0.0 6.83472961660723" Properties=species:S:1:pos:R:3:forces:R:3 group=TiZrNb2_strain_vol_b0 composition=TiZrNb2 energy=-145.16232299804688 pbc="T T T"
Nb      -0.04005295       0.00542479      -0.02607710       0.00209928       0.11938769      -0.08189842
Nb       1.66524512       1.74776064       1.65727126      -0.00986929      -0.54223281       0.29511091
Ti       0.03625896       0.02242111       3.47373203      -0.21815395       0.09616490      -0.05130579
Ti       1.76163225       1.61758443       5.16986116      -0.22948450      -0.11314001      -0.10610434
Zr      -0.01480651       3.44397321       0.03560937      -0.14646573      -0.23510626      -0.31074396
Zr       1.71200372       5.10647125       1.72007804      -0.16416728       0.51285827       0.23271656
Ti       0.00705418       3.40943062       3.43089994      -0.17248638      -0.17968142       0.12128344
Nb       1.65813746       5.10492413       5.09361473       0.01310194       0.41746563      -0.09599889
Nb       3.43347090      -0.00227583       0.00636669       0.07156222       0.13459963      -0.14060396
Nb       5.14805500       1.68012371       1.66588537       0.04207820      -0.31961793       0.32865399
Ti       3.38260702       0.01611359       3.39552467       0.21118359       0.05943054       0.11749054
Nb       5.13107728       1.67968515       5.09470488       0.12659958      -0.32599801      -0.08824402
Zr       3.40293605       3.45141055       0.00131284       0.20302039      -0.22384536      -0.14843655
Nb       5.13991442       5.14967222       1.76239616       0.09509338       0.33826214       0.18162969
Zr       3.42567521       3.37550833       3.46017012       0.10810175      -0.13415550       0.04221989
Nb       5.13255325       5.12939762       5.14978985       0.06778669       0.39560834      -0.29576904
16
Lattice="6.378889502632704 0.0 0.0 0.0 6.378889502632704 0.0 0.0 0.0 6.378889502632704" Properties=species:S:1:pos:R:3:forces:R:3 group=TiZrNb2_strain_vol_b0 composition=TiZrNb2 energy=-141.94606018066406 pbc="T T T"
Nb      -0.04645007      -0.00991023      -0.01735499       0.24556743      -0.28922451       0.04273473
Ti       1.56145754       1.54447664       1.61894108       0.61186707       0.26274556      -0.50857282
Zr      -0.01758952      -0.00343941       3.13027804       0.18961012      -0.41523874       0.49382904
Zr       1.57519957       1.58835978       4.77314869       0.62257993       0.04929399       0.24946114
Nb       0.00518537       3.18723912      -0.05578622      -0.06581187       0.23931780       0.26163900
Nb       1.56881761       4.76499920       1.57684129       0.45837981      -0.23371038      -0.13677762
Zr      -0.01975328       3.19150947       3.14107489       0.10350561       0.25115821       0.41768068
Nb       1.60094461       4.80537172       4.83039677       0.41348493      -0.27139357      -0.14268783
Nb       3.19404902       0.00363637       0.06342222      -0.24136055      -0.08027774      -0.27537167
Zr       4.81309496       1.62939675       1.59374658      -0.70249963       0.18161830      -0.25769517
Nb       3.23903625      -0.05677965       3.17867645      -0.39314789       0.02675107       0.30931944
Nb       4.79203641       1.52238766       4.81173328      -0.66346127       0.57940948      -0.02327972
Ti       3.17841799       3.22796282       0.03339525      -0.05184728      -0.01539335      -0.10241608
Nb       4.72534144       4.79049959       1.63537702      -0.24557552      -0.50249088      -0.47461426
Ti       3.15553222       3.17421090       3.20703978       0.06403926       0.22656155       0.05628188
Ti       4.78215038       4.74808441       4.83353582      -0.34533021      -0.00912695       0.09046926
16
Lattice="6.720000000000001 0.0 0.0 0.0 6.720000000000001 0.0 0.0 0.0 6.720000000000001" Properties=species:S:1:pos:R:3:forces:R:3 group=TiZrNb2_md600_b0 composition=TiZrNb2 energy=-144.51443481445312 pbc="T T T"
Ti       0.08589648       0.09954119       0.09716516      -0.16386929      -0.06318367      -0.32398504
Nb       1.68173133       1.61115054       1.54139248      -0.03912365       0.05982536       0.59790689
Ti       0.02910720      -0.11855536       3.42567851       0.04624052       0.75780553       0.02887162
Nb       1.66489827       1.90686000       4.89496669       0.05181189      -0.73646927       0.67537743
Nb       0.11058424       3.50070362       0.32740573      -0.29517990      -0.05456275      -0.72065115
Ti       1.58769302       5.25557004       1.82395670       0.48551503      -0.41609365      -0.32926404
Nb       0.12584828       3.32221946       3.26071095      -0.03051713       0.34006339       0.10769309
Zr       1.74305536       5.10396632       5.04675377      -0.39135051      -0.30724680       0.39218098
Zr       3.55435562       0.21726996      -0.02688891      -0.49768478      -0.32260528      -0.07189513
Zr       4.98262065       1.58850137       1.86741738       0.54073071       0.26088822      -0.40019447
Nb       3.36182357      -0.26718368       3.46189985       0.23329136       0.90519536      -0.42260727
Zr       5.17811215       1.93431113       5.01088049      -0.13665260      -0.01624377       0.50033051
Nb       3.21888897       3.73753062       0.25971901       0.59089273      -0.72544378      -0.24769059
Nb       5.10040422       5.05875987       1.82446149      -0.09183296      -0.13504542      -0.07623041
Ti       3.27867636       3.13282490       3.26721924      -0.00319935       1.11372828       0.08306442
Nb       5.24094081       5.18468015       5.08117564      -0.29907185      -0.66061187       0.20709302
16
Lattice="6.720000000000001 0.0 0.0 0.0 6.720000000000001 0.0 0.0 0.0 6.720000000000001" Properties=species:S:1:pos:R:3:forces:R:3 group=TiZrNb2_md600_b0 composition=TiZrNb2 energy=-144.49522399902344 pbc="T T T"
Ti       0.08321434       0.12883133      -0.00624921      -0.13159251      -0.02443191       0.08895659
Nb       1.69558080       1.53671274       1.54929479      -0.02560207       0.39502400       0.56459135
Ti       0.13792311       0.07462692       3.52995952      -0.14489850      -0.08054128      -0.27947110
Nb       1.60401144       1.93563611       4.89514533       0.67169780      -0.54707605       0.74698579
Nb       0.14561622       3.58229007       0.34482105      -0.35773706      -0.46243453      -0.65804398
Ti       1.66203163       5.20329994       1.82374154      -0.06793612       0.48558807      -0.16743548
Nb       0.18277501       3.43247121       3.21434421      -0.12511408       0.03727799       0.17781550
Zr       1.68495256       5.05567276       5.08867375       0.15305394       0.10678817       0.31685066
Zr       3.57125158       0.25865782      -0.00649250      -0.39544922      -0.34116569      -0.30573049
Zr       5.01363941       1.57921132       1.95044107       0.36050683       0.42272395      -0.45128784
Nb       3.39744142      -0.26943798       3.45700843       0.01874214       0.86839926       0.00186741
Zr       5.23446164       2.03245864       5.00013242      -0.57036078      -0.01388143       0.53844380
Nb       3.28056946       3.79632472       0.38322616       0.52304339      -1.09561360      -0.78214353
Nb       5.11233846       5.02869078       1.87509071       0.22042361       0.46965513      -0.04641160
Ti       3.21902143       3.36857413       3.23199229       0.29660410       0.08734817       0.32556495
Nb       5.26888451       5.15269637       5.15018378      -0.42538127      -0.30766043      -0.07055167
16
Lattice="6.720000000000001 0.0 0.0 0.0 6.720000000000001 0.0 0.0 0.0 6.720000000000001" Properties=species:S:1:pos:R:3:forces:R:3 group=TiZrNb2_md600_b0 composition=TiZrNb2 energy=-144.766845703125 pbc="T T T"
Ti       0.34986900       0.22905037       0.34363701      -0.45593262       0.12939626       0.04445072
Nb       2.05087449       1.92892912       2.02850454      -0.31829998       0.22754914       0.03155773
Ti       0.38223254       0.43234515       3.61591215      -0.42120802       0.01286407      -0.15783198
Nb       1.80007223       2.05139990       5.44866560       0.38420793       0.35234123      -0.48974660
Nb       0.29281374       3.59018742       0.48251863      -0.07640943       0.45250767      -0.51145875
Ti       1.67687443       5.31063840       2.17726998       1.03913760       0.36672914      -0.85596806
Nb       0.28902699       3.70464725       3.42090645      -0.28941438      -0.29649317       0.69752181
Zr       1.80893986       5.38844167       5.13614266       0.01206487      -0.52871853       0.48518938
Zr       3.43487884       0.27838430       0.08836572       0.39393532       0.15916273       0.58242345
Zr       5.21841010       2.00454633       2.01842901       0.27899733      -0.06691106      -0.66735452
Nb       3.69835856       0.34403729       3.62860835      -0.50381899      -0.20487469      -0.01229256
Zr       5.41229174       2.10486173       5.16760236      -0.18693680       0.04614010       0.81157058
Nb       3.58260506       3.92330132       0.38989986      -0.13951923      -0.48224464      -0.18246624
Nb       5.16518212       5.44330355       1.97139309       0.38305557      -0.07009260       0.02069888
Ti       3.64422000       3.71370864       3.66180215      -0.30782494       0.13779391       0.01710975
Nb       5.33254937       5.42819313       5.21955859       0.20796561      -0.23514950       0.18659651
16
Lattice="6.720000000000001 0.0 0.0 0.0 6.720000000000001 0.0 0.0 0.0 6.720000000000001" Properties=species:S:1:pos:R:3:forces:R:3 group=TiZrNb2_md600_b0 composition=TiZrNb2 energy=-144.81814575195312 pbc="T T T"
Ti       0.26764916       0.39628077       0.26936483       0.08133450      -0.22402979      -0.09568637
Nb       1.72769323       2.04805501       1.89346859       0.46786815       0.01622947      -0.05333526
Ti       0.36036787       0.13280215       3.71710711      -0.04835029       0.47368753      -0.13804685
Nb       1.95582866       2.05858149       5.22956025      -0.49646041      -0.01329464       0.50359851
Nb       0.15665616       4.08539208       0.40316669       0.18352681      -0.50900584       0.13933860
Ti       2.12894061       5.63362594       1.87629799      -0.50862503      -0.55239826       0.24968489
Nb       0.37208765       3.79780173       3.59197535       0.08599141       0.18138796      -0.14603254
Zr       1.99898766       5.19839012       5.47905081       0.19215208       0.53801525      -0.35640168
Zr       3.83109683       0.39373180       0.26376465      -0.31715512      -0.17139757      -0.02236409
Zr       5.45316338       2.07031761       2.04766439      -0.39367768      -0.04272614       0.39185685
Nb       3.35402282       0.45069303       3.73390518       0.65183091      -0.15915778      -0.32097259
Zr       5.38887411       2.22022014       5.37566143       0.15656729      -0.23862270      -0.54231828
Nb       3.58937809       3.56476572       0.37001845       0.01357001       0.55638772       0.24329960
Nb       5.21495089       5.46063063       2.14030472       0.11196961      -0.07655247      -0.14942078
Ti       3.40561008       3.70831255       3.51313087       0.39667672      -0.01542850      -0.03113147
Nb       5.38823529       5.32393430       5.14744529      -0.57721901       0.23690568       0.32793126
16
Lattice="6.720000000000001 0.0 0.0 0.0 6.720000000000001 0.0 0.0 0.0 6.720000000000001" Properties=species:S:1:pos:R:3:forces:R:3 group=TiZrNb2_md1400_b1 composition=TiZrNb2 energy=-143.87376403808594 pbc="T T T"
Nb       0.18163626      -0.06732623       0.11535739      -0.45647401      -0.40225664      -0.17997567
Nb       1.71230794       1.58080971       1.49963935      -0.27391249      -0.03418100       0.96153760
Nb      -0.18504271      -0.11978253       3.61325011       1.58586895       0.26259729      -1.42064857
Nb       1.58387187       1.74772552       5.06668458       0.70095009      -0.90874028      -0.34198847
Zr      -0.04442400       3.36871128      -0.04045619       0.09736159       0.63649237       0.66649693
Ti       1.54208869       5.22224966       2.14673129       0.09969601      -0.72862911      -1.21192348
Nb      -0.09890938       3.22428361       3.44614674       1.04184842       0.98992348      -1.07659030
Nb       1.66973391       4.97878082       5.06411235       0.23510405       0.50061917       0.07290200
Ti       3.54578056       0.08039607       0.06863440      -0.82527095      -0.71544623      -1.04978538
Zr       4.99440210       1.57038122       1.62765154       0.81953633      -0.17718747      -0.03936434
Nb       3.31370918      -0.12691679       3.41165231      -0.29671785       0.60987735       0.49825937
Nb       5.24811933       1.66130144       4.79673997      -1.46288502      -0.40751773       1.84145808
Zr       3.42536066       3.35350460      -0.18373147      -0.19383661       0.48896343       0.36045119
Ti       4.81792010       5.10901282       1.80361382       0.77743924      -0.10080507      -0.47508088
Zr       3.50429367       3.19129643       3.25481426      -1.18946123       0.51138413       0.30524585
Ti       5.11065528       5.11424844       4.85878060      -0.65924734      -0.52509338       1.08900559
16
Lattice="6.720000000000001 0.0 0.0 0.0 6.720000000000001 0.0 0.0 0.0 6.720000000000001" Properties=species:S:1:pos:R:3:forces:R:3 group=TiZrNb2_md1400_b1 composition=TiZrNb2 energy=-143.82664489746094 pbc="T T T"
Nb      -0.08066036      -0.36071977      -0.07091624       0.76107126      -0.15976466       0.24239959
Nb       1.95988763       1.41612226       1.67923300      -1.12961066      -0.60360307      -0.11155513
Nb       0.12150113      -0.04201870       3.31330321       0.10916422      -0.23250970      -0.28700492
Nb       1.49069577       1.36283833       5.20761952       0.22600222       0.54067045      -0.28798038
Zr       0.00100612       3.29986209       0.38766230      -0.03974824      -0.13789189      -0.76107883
Ti       2.09181665       4.91492744       1.37195465      -1.57924139       0.87123597       1.67047882
Nb       0.05367333       3.30246754       3.27117032       0.22283779      -0.76179087       0.00954777
Nb       1.52492570       4.76415717       5.04541789       0.43754798       0.23297831      -0.34190282
Ti       3.32062130      -0.31573641      -0.13352177       0.31307709       0.10063276      -0.91978079
Zr       5.03657739       1.16232352       1.35943019       0.06449842       0.64466107       1.66687465
Nb       3.30304344      -0.05196414       3.57695325       0.18879765      -0.47375768      -0.04681113
Nb       5.00263896       1.51507956       5.20356049       0.33235279      -0.01320264      -1.06796455
Zr       3.35870602       3.17311015       0.00876864       0.65350723       0.03891373      -1.24522948
Ti       4.93252663       4.98710233       1.94648993       0.41062188       0.29851133      -0.55133456
Zr       3.32895852       3.23402584       3.19148350       0.14929417      -0.32429510       1.29233825
Ti       5.39045158       4.92260024       4.75987482      -1.12017226      -0.02078773       0.73900330
16
Lattice="6.720000000000001 0.0 0.0 0.0 6.720000000000001 0.0 0.0 0.0 6.720000000000001" Properties=species:S:1:pos:R:3:forces:R:3 group=TiZrNb2_md1400_b1 composition=TiZrNb2 energy=-142.70945739746094 pbc="T T T"
Nb      -0.00220403      -0.42152923      -0.21775805       0.07544583       0.40870905       0.16816309
Nb       1.83748619       1.20269735       1.66979032       0.71356797       1.38150752      -0.45901549
Nb       0.09647516       0.04544407       3.00826773      -0.54723603      -1.44093299       2.78034949
Nb       1.46212294       1.58172436       5.35630147       0.67407262      -1.29020226      -1.31658792
Zr      -0.01795044       3.07030613       0.35456779       0.33497691       0.91829115      -0.63046873
Ti       1.63179959       5.37446227       1.66722666       1.16189253      -2.50452709      -0.41607562
Nb      -0.12641316       2.91714049       3.36348302       0.94786555       1.30712295       0.07059923
Nb       1.63959980       4.72927751       4.70824818      -0.91815519       1.28130913       1.21425414
Ti       3.77555831      -0.44948610      -0.30353681      -1.71289170       0.16048819       0.51991540
Zr       4.99353495       1.35189909       1.74576661      -0.73023880      -0.01295820      -1.09378767
Nb       3.52106625      -0.13703323       3.48283374      -0.91969669      -0.57567477       0.41510767
Nb       5.02168995       1.40290500       4.97886231       0.75267625      -0.09974903       0.62622309
Zr       3.42447667       2.88734863       0.00665059      -0.30412805       1.59839702       0.46654561
Ti       4.94732220       4.90728373       1.77720282       0.24079090      -0.25979722      -0.01106469
Zr       3.37294324       3.22495356       3.67091186      -0.09148759      -0.54779243      -1.78909624
Ti       5.28361534       4.80381397       4.94000474       0.32254595      -0.32419115      -0.54506159
16
Lattice="6.720000000000001 0.0 0.0 0.0 6.720000000000001 0.0 0.0 0.0 6.720000000000001" Properties=species:S:1:pos:R:3:forces:R:3 group=TiZrNb2_md1400_b1 composition=TiZrNb2 energy=-142.53897094726562 pbc="T T T"
Nb      -0.14186010      -0.36468688      -0.24856549       0.05695032      -0.84477293       0.66386366
Nb       1.71408233       1.45547368       1.79439277      -1.04674697      -1.31962729       0.16702262
Nb       0.10405627      -0.25100628       3.42365329      -0.05354788      -0.56695497      -0.00318883
Nb       1.68081770       1.05907206       5.17393022       0.63813937      -0.22563142      -0.80907941
Zr       0.12210204       2.83272512      -0.39419879      -0.37178659       0.90823960       2.01971841
Ti       1.77062652       4.38546227       1.90762900      -0.99048841       1.28288984      -1.11986637
Nb       0.04449447       3.09067576       3.72353585       0.00164211      -0.71821779      -1.60203981
Nb       1.90729398       4.74483143       4.66194182      -0.53353196       0.71840775       1.93872678
Ti       3.04789553      -0.55477269       0.24129100       0.82152104      -0.25028169      -0.26236629
Zr       5.25649960       1.33121624       1.82287006       0.18822002      -0.08930221      -0.74945015
Nb       3.55081987      -0.34548000       3.24032644      -0.50436169      -1.06536031      -0.56930590
Nb       4.63125740       1.19158279       4.89660947       1.61415577      -0.78819513       1.37002599
Zr       3.34062037       2.64585767       0.15707552       0.58858484       1.53015327      -0.69598746
Ti       5.64258404       4.67688960       1.83342858      -1.01694572      -0.13958961      -0.50271726
Zr       3.32263844       2.96030923       3.41651845       0.86185282      -0.36026889      -0.36166424
Ti       4.96332314       4.35129251       5.00774927      -0.25365666       1.92851114       0.51630861
